     387
 i =        1, E =     -6913.3678586463
  O         0.8056272856        0.4747782124        4.8733157783
  O         5.5176224386        0.4752469454       13.0342589820
  O         6.7323241820        0.4766381495        8.1387617927
  O         2.0207796754        0.4663267281       16.2963876682
  O         1.8861599175        0.4760423160        9.5369979480
  O         6.6085231789        0.4585074005       17.6860271993
  O         3.9061588376        3.9152682621        7.4422016522
  O         8.6174090051        3.9173062416       15.5993798014
  O         7.4051932203        3.9043232797        4.1795607910
  O         2.6921235932        3.9165539700       12.3367155257
  O         2.8099383260        3.8945175980        2.7913687860
  O         7.5376640958        3.9158084133       10.9376510245
  O         3.9059938975        6.4034379900        7.4420890132
  O         8.6172880671        6.4014205042       15.5993104175
  O         7.4051765152        6.4144335485        4.1797652119
  O         2.6920353437        6.4021793667       12.3369506263
  O         2.8101382257        6.4242223404        2.7912643016
  O         7.5378616081        6.4029187409       10.9375660362
  O         0.8054561944        2.9644839678        4.8731896844
  O         5.5174167937        2.9640089119       13.0341678449
  O         6.7323266796        2.9626264258        8.1389649450
  O         2.0207579845        2.9729250989       16.2965987092
  O         1.8863409332        2.9632391266        9.5368974561
  O         6.6087199299        2.9807525589       17.6859206571
  O         3.0303802379        1.7200301549        4.7503474178
  O         7.7392925685        1.7200307459       12.9124282264
  O         1.6168910312        1.7200307268        6.8813759144
  O         6.3286583652        1.7200082822       15.0405447252
  P         1.5978445856        1.7197035627        5.3310590727
  P         6.3108253084        1.7197197707       13.4950151761
 Ca         8.1982229672        1.7199611853        4.0902444943
 Ca         3.4817952538        1.7199393692       12.2581925854
  O         5.5129367731        1.7200336604        6.2756691228
  O         0.7982943245        1.7200272760       14.4334755013
  O         8.0659990899        1.7200238751        6.4368170702
  O         3.3577524425        1.7200449276       14.5908819685
  P         6.7346304275        1.7197096142        7.2275064430
  P         2.0234489389        1.7196999722       15.4072567084
 Ca         2.3630808886        1.7199821358        2.1360429542
 Ca         7.0747852509        1.7199670197       10.2934160674
  O         0.8803686194        1.7200374934       11.5220025964
  O         5.5988332471        1.7200149559       19.6614775695
  O        18.5909937909        1.7200228716        9.2367113594
  O         4.4591136623        1.7200211603       17.3788196119
  P         1.0939521021        1.7196976727        9.9950780318
  P         5.7799492982        1.7197053010       18.2115125266
 Ca         3.5788064642        1.7199904934        8.1647309864
 Ca         8.2887716900        1.7199458545       16.3276377549
  O         1.6844377874        5.1589674055        7.5621512307
  O         6.3914862083        5.1589533910       15.7274630483
  O         3.0941046194        5.1589753703        5.4343025683
  O         7.8061545915        5.1590231484       13.5941940574
  P         3.1138562420        5.1593128098        6.9818084316
  P         7.8296149155        5.1592685581       15.1447705561
 Ca         5.9422793437        5.1590732744        8.2176580301
 Ca         1.2250362164        5.1590612073       16.3794252711
  O         8.6267686016        5.1589742662        6.0416742275
  O         3.9115759933        5.1589658234       14.2014990537
  O         6.0670001071        5.1589746502        5.8850050060
  O         1.3587150199        5.1589676476       14.0389501532
  P         7.3998324637        5.1592853228        5.0658547117
  P         2.6878489404        5.1593639886       13.2482447461
 Ca         2.3492510821        5.1590401291       10.1825722413
 Ca         7.0641779769        5.1589834157       18.3401493182
  O         3.8248634089        5.1589678254        0.8169401824
  O         8.5437254534        5.1589706079        8.9525539324
  O         4.9626173700        5.1589755464        3.0962195633
  O         9.6809390868        5.1589720542       11.2396466981
  P         3.6477257444        5.1592896708        2.2580384015
  P         8.3300100856        5.1593076579       10.4806763478
 Ca         1.1333899962        5.1590473509        4.1434054059
 Ca         5.8455699393        5.1590151625       12.3112268426
 Ca         4.7119923976       -0.0055344004        4.7922361883
 Ca         0.0004276826        0.0088624799       12.9592128266
 Ca        -0.0007851041        3.4480576279        7.5163923080
 Ca         4.7130425143        3.4323319105       15.6822811153
 Ca        -0.0007872754        6.8699780127        7.5163964083
 Ca         4.7130568717        6.8857609070       15.6823015832
 Ca         4.7119949944        3.4455236828        4.7922177294
 Ca         0.0004118669        3.4310982141       12.9592081049
  O         4.7121147357        1.1110000000       10.2385884259
  O         0.0006128785        1.1110000000       18.3985433525
  H         4.7119682371        0.2897723903       10.2380106478
  H         0.0020461453        0.2910414814       18.4042368118
  O         4.7120730146        4.5500000000       10.2388201951
  O        -0.0024820256        4.5500000000       18.3979002882
  H         4.7119899781        3.7297343932       10.2379887750
  H         0.0020826545        3.7325670843       18.4034134338
  O         4.7120120850       12.6470000000       10.2392995063
  O        -0.0025407069       12.6470000000       18.3979958880
  H         4.7119892510       13.4682230258       10.2379437090
  H         0.0021013546       13.4655525858       18.4034029011
  O         4.7125359088        2.3290000000       10.2385917174
  O         0.0012507890        2.3290000000       18.3989846159
  H         4.7119857612        3.1492660072       10.2380123044
  H         0.0019478647        3.1478377777       18.4041953746
  O        10.2296224540        0.4747828693        4.8733044693
  O        14.9416315453        0.4752735957       13.0342666748
  O        16.1563462259        0.4766270151        8.1387561067
  O        11.4447762760        0.4663299055       16.2963517101
  O        11.3101555747        0.4760325246        9.5370098711
  O        16.0325336761        0.4585550143       17.6860564907
  O        13.3301811245        3.9152758494        7.4422009543
  O        18.0414279249        3.9173034559       15.5994106747
  O        16.8291867578        3.9043231868        4.1795668217
  O        12.1161350094        3.9165540630       12.3366940472
  O        12.2339320709        3.8945202221        2.7913654705
  O        16.9616690887        3.9158025723       10.9376442608
  O        13.3300125813        6.4034297464        7.4420863194
  O        18.0412772454        6.4014148294       15.5992990215
  O        16.8291702107        6.4144323153        4.1797677295
  O        12.1160325552        6.4021880615       12.3369458929
  O        12.2341287474        6.4242290094        2.7912617945
  O        16.9618652244        6.4029178534       10.9375593657
  O        10.2294541071        2.9644940941        4.8731861273
  O        14.9414204480        2.9640169878       13.0341728501
  O        16.1563122567        2.9626188323        8.1389930220
  O        11.4447582406        2.9729322797       16.2965715435
  O        11.3103418579        2.9632442661        9.5369038068
  O        16.0327302936        2.9807180426       17.6859480444
  O        12.4543817687        1.7200321455        4.7503403896
  O        17.1633060107        1.7200347051       12.9124288094
  O        11.0408800048        1.7200301423        6.8813674273
  O        15.7526823917        1.7200058160       15.0405770261
  P        11.0218490081        1.7196964698        5.3310762651
  P        15.7347906828        1.7196985761       13.4949892863
 Ca        17.6222226594        1.7199675212        4.0902374375
 Ca        12.9058129943        1.7199366350       12.2582543265
  O        14.9369502543        1.7200327100        6.2756733434
  O        10.2222750148        1.7200277007       14.4334547322
  O        17.4899987882        1.7200238708        6.4368256476
  O        12.7817826858        1.7200447958       14.5908629337
  P        16.1586170337        1.7196857014        7.2274830379
  P        11.4474417734        1.7196981427       15.4072458504
 Ca        11.7870836381        1.7199765055        2.1360438388
 Ca        16.4988215037        1.7199847683       10.2934537973
  O        10.3043733919        1.7200359582       11.5220070394
  O        15.0228745302        1.7200328446       19.6615470645
  O         9.1669993860        1.7200221931        9.2367113960
  O        13.8831583445        1.7200226680       17.3788478418
  P        10.5179422407        1.7197040777        9.9950709124
  P        15.2039361845        1.7196994188       18.2113983711
 Ca        13.0028483078        1.7199732419        8.1647912396
 Ca        17.7127217152        1.7199484932       16.3275645227
  O        11.1084368122        5.1589679686        7.5621513256
  O        15.8154914526        5.1589646250       15.7274754810
  O        12.5180926755        5.1589763798        5.4342899482
  O        17.2301946363        5.1589935938       13.5941998981
  P        12.5378609009        5.1593129417        6.9818131251
  P        17.2536039100        5.1593053294       15.1447460047
 Ca        15.3662478016        5.1590855135        8.2175672970
 Ca        10.6490380147        5.1590098189       16.3794569390
  O        18.0507659336        5.1589738531        6.0416818232
  O        13.3355763072        5.1589702537       14.2014928168
  O        15.4909917165        5.1589730132        5.8850341425
  O        10.7827238627        5.1589671975       14.0389293527
  P        16.8238468852        5.1592837319        5.0658400328
  P        12.1118399269        5.1593704977       13.2482756461
 Ca        11.7732019625        5.1590361484       10.1825315434
 Ca        16.4881769380        5.1590316220       18.3400596855
  O        13.2488653804        5.1589692638        0.8169418868
  O        17.9677213757        5.1589696961        8.9525490038
  O        14.3866111175        5.1589771997        3.0962165073
  O         0.2569303462        5.1589705963       11.2396459516
  P        13.0717345644        5.1592826976        2.2580423208
  P        17.7540195534        5.1593097980       10.4806876049
 Ca        10.5573981013        5.1590419937        4.1434190494
 Ca        15.2695088064        5.1590115927       12.3111781410
 Ca        14.1359820148       -0.0055392000        4.7922422363
 Ca         9.4244322474        0.0088650529       12.9592273656
 Ca         9.4232133699        3.4480569066        7.5163942695
 Ca        14.1370182203        3.4323189247       15.6822866005
 Ca         9.4232092606        6.8699787401        7.5163934787
 Ca        14.1370415121        6.8857464324       15.6822735765
 Ca        14.1359973381        3.4455118568        4.7922194092
 Ca         9.4244091953        3.4310945398       12.9592141177
  O        14.1365000677        1.1110000000       10.2382043394
  O         9.4250599029        1.1110000000       18.3990446577
  H        14.1358941259        0.2897895612       10.2380090638
  H         9.4259695658        0.2910985780       18.4041652040
  O        14.1357577776        4.5500000000       10.2384095301
  O         9.4216338255        4.5500000000       18.3978919566
  H        14.1360124138        3.7296899509       10.2380913622
  H         9.4261178371        3.7326875104       18.4034406844
  O        14.1356933005       12.6470000000       10.2390441094
  O         9.4215545182       12.6470000000       18.3979551232
  H        14.1360650705       13.4681827426       10.2380074294
  H         9.4261033622       13.4653258438       18.4033930447
  O        14.1361867930        2.3290000000       10.2390676455
  O         9.4248767476        2.3290000000       18.3984940717
  H        14.1360117427        3.1492885431       10.2378994830
  H         9.4260117289        3.1478841763       18.4042696044
  O         0.8056247499        7.3537872245        4.8733160605
  O         5.5176276180        7.3542637501       13.0342602827
  O         6.7323445695        7.3556345526        8.1387487908
  O         2.0207830817        7.3453165786       16.2963907079
  O         1.8861534659        7.3550383956        9.5369967063
  O         6.6085247089        7.3375901983       17.6860160288
  O         3.9061812284       10.7942726181        7.4422140704
  O         8.6174390604       10.7963015439       15.5994112958
  O         7.4051926286       10.7833284735        4.1795638565
  O         2.6921246245       10.7955500445       12.3367140878
  O         2.8099343466       10.7735295986        2.7913643875
  O         7.5376645228       10.7948098416       10.9376539831
  O         3.9060149864       13.2824358541        7.4420988429
  O         8.6172517215       13.2804052565       15.5992616211
  O         7.4051720079       13.2934401214        4.1797633003
  O         2.6920367105       13.2811837213       12.3369509663
  O         2.8101303915       13.3032317116        2.7912606608
  O         7.5378576060       13.2819172117       10.9375714444
  O         0.8054602426        9.8434978412        4.8731966453
  O         5.5174176058        9.8430265143       13.0341577437
  O         6.7323081694        9.8416221817        8.1389812823
  O         2.0207546798        9.8519237980       16.2966103425
  O         1.8863467861        9.8422376464        9.5368991695
  O         6.6087293499        9.8596619623       17.6859119612
  O         3.0303768566        8.5990346367        4.7503512059
  O         7.7392947025        8.5990324572       12.9124305851
  O         1.6168898178        8.5990260258        6.8813790627
  O         6.3286728606        8.5989973741       15.0405729030
  P         1.5978468208        8.5986959629        5.3310552495
  P         6.3108140465        8.5986988485       13.4950080087
 Ca         8.1982148134        8.5989646201        4.0902404921
 Ca         3.4817966303        8.5989621641       12.2581986811
  O         5.5129390836        8.5990331111        6.2756749212
  O         0.7982935292        8.5990295683       14.4334808096
  O         8.0660005383        8.5990214975        6.4368194470
  O         3.3577319002        8.5990264342       14.5908795299
  P         6.7346270342        8.5986834497        7.2275012542
  P         2.0234650306        8.5987112182       15.4072583517
 Ca         2.3630810354        8.5989713265        2.1360412427
 Ca         7.0747764961        8.5989685621       10.2934138072
  O         0.8803677566        8.5990364151       11.5220022921
  O         5.5988357331        8.5990581924       19.6614275371
  O        18.5909938712        8.5990216023        9.2367116649
  O         4.4590932536        8.5990110935       17.3787817321
  P         1.0939517953        8.5987003389        9.9950781021
  P         5.7800189671        8.5987169410       18.2115481081
 Ca         3.5788045758        8.5989757729        8.1647222080
 Ca         8.2886906851        8.5989547816       16.3275430677
  O         1.6844418834       12.0379687258        7.5621516212
  O         6.3914947935       12.0379711300       15.7274569646
  O         3.0940904188       12.0379786211        5.4343000130
  O         7.8061915787       12.0379680925       13.5941677768
  P         3.1138433250       12.0383094156        6.9817934012
  P         7.8296104343       12.0383445535       15.1447854554
 Ca         5.9422748115       12.0380679167        8.2176149760
 Ca         1.2250577472       12.0380693867       16.3794267419
  O         8.6267652114       12.0379760297        6.0416782056
  O         3.9115753853       12.0379707718       14.2014812090
  O         6.0669937038       12.0379778128        5.8850249902
  O         1.3587137672       12.0379672819       14.0389402743
  P         7.3998428069       12.0382767329        5.0658483955
  P         2.6878494214       12.0383633133       13.2482582518
 Ca         2.3492493269       12.0380539276       10.1825690623
 Ca         7.0641794061       12.0380752538       18.3400744617
  O         3.8248622770       12.0379733569        0.8169337583
  O         8.5437239516       12.0379714893        8.9525519099
  O         4.9626088226       12.0379825025        3.0962140123
  O         9.6809380366       12.0379695664       11.2396447465
  P         3.6477334842       12.0382744768        2.2580556998
  P         8.3300167539       12.0383063918       10.4806778928
 Ca         1.1333979288       12.0380389289        4.1434146968
 Ca         5.8455514259       12.0380045688       12.3112635606
 Ca         4.7119876521        6.8734599436        4.7922283888
 Ca         0.0004289876        6.8878635953       12.9592129915
 Ca        -0.0007848067       10.3270547336        7.5163866107
 Ca         4.7130391444       10.3113293534       15.6823145758
 Ca        -0.0007878423       13.7489767740        7.5163940823
 Ca         4.7130484206       13.7647181382       15.6822877606
 Ca         4.7120006214       10.3245015504        4.7922178533
 Ca         0.0004123228       10.3101013565       12.9592073498
  O         4.7123646191        7.9900000000       10.2379675990
  O         0.0010236281        7.9900000000       18.3990116489
  H         4.7119319459        7.1688012271       10.2380814571
  H         0.0019811403        7.1701206867       18.4041519823
  O         4.7111175605       11.4290000000       10.2383932609
  O        -0.0024501058       11.4290000000       18.3978885149
  H         4.7121060852       10.6086852071       10.2380529294
  H         0.0020746506       10.6114810454       18.4034347279
  O         4.7110831273        5.7680000000       10.2390869281
  O        -0.0025931391        5.7680000000       18.3980022090
  H         4.7121028236        6.5891685104       10.2379576908
  H         0.0020960908        6.5865018745       18.4033659325
  O         4.7126207678        9.2080000000       10.2393243572
  O         0.0008372874        9.2080000000       18.3985370619
  H         4.7119276490       10.0282909639       10.2379097750
  H         0.0020061876       10.0268965077       18.4042619491
  O        10.2296244498        7.3537783270        4.8733056570
  O        14.9416287366        7.3542624590       13.0342688635
  O        16.1563288675        7.3556274191        8.1387722156
  O        11.4448029112        7.3453312696       16.2964007568
  O        11.3101538127        7.3550304562        9.5370086514
  O        16.0325291559        7.3375255223       17.6860267130
  O        13.3301683698       10.7942783933        7.4422005924
  O        18.0414371416       10.7962915246       15.5994140617
  O        16.8291913102       10.7833337861        4.1795691655
  O        12.1161316470       10.7955440603       12.3366901706
  O        12.2339349542       10.7735224304        2.7913647486
  O        16.9616711822       10.7947998769       10.9376419688
  O        13.3300017203       13.2824293395        7.4420861031
  O        18.0412782105       13.2804245103       15.5992968812
  O        16.8291750744       13.2934367284        4.1797637394
  O        12.1160296747       13.2811878654       12.3369428481
  O        12.2341323897       13.3032307800        2.7912607993
  O        16.9618673295       13.2819180180       10.9375563340
  O        10.2294545271        9.8434898419        4.8731859855
  O        14.9414180462        9.8430051182       13.0341795768
  O        16.1563289922        9.8416201915        8.1389792838
  O        11.4447750798        9.8519049873       16.2966180053
  O        11.3103430859        9.8422405751        9.5369055702
  O        16.0327324666        9.8597006932       17.6859215692
  O        12.4543789333        8.5990321972        4.7503415590
  O        17.1633015433        8.5990316765       12.9124297817
  O        11.0408801680        8.5990281740        6.8813671727
  O        15.7526755230        8.5990036695       15.0405792164
  P        11.0218500470        8.5987027774        5.3310751480
  P        15.7347946915        8.5987099813       13.4949849865
 Ca        17.6222230388        8.5989580405        4.0902287450
 Ca        12.9058122273        8.5989463348       12.2582476729
  O        14.9369497359        8.5990341740        6.2756776456
  O        10.2223161663        8.5990253967       14.4334810811
  O        17.4899970296        8.5990285439        6.4368289603
  O        12.7817346063        8.5990357472       14.5908671926
  P        16.1586178667        8.5987054296        7.2274789113
  P        11.4474306977        8.5987120889       15.4073234058
 Ca        11.7870862314        8.5989803513        2.1360411812
 Ca        16.4988197920        8.5989873924       10.2934513460
  O        10.3043726221        8.5990366868       11.5220101762
  O        15.0228901932        8.5990352445       19.6614685612
  O         9.1669995521        8.5990241611        9.2367127792
  O        13.8831247667        8.5990120115       17.3788118504
  P        10.5179423704        8.5987031432        9.9950686515
  P        15.2039625484        8.5987274843       18.2115080641
 Ca        13.0028500583        8.5989843918        8.1647923055
 Ca        17.7127134606        8.5989520545       16.3275600187
  O        11.1084313918       12.0379674399        7.5621526413
  O        15.8155088033       12.0379638793       15.7274644295
  O        12.5180961608       12.0379774029        5.4342911831
  O        17.2301808101       12.0379871868       13.5942062556
  P        12.5378696338       12.0383125882        6.9818178872
  P        17.2535877530       12.0383119283       15.1447497289
 Ca        15.3662543716       12.0380784880        8.2176018677
 Ca        10.6490481764       12.0381192512       16.3794512900
  O        18.0507688851       12.0379771444        6.0416784474
  O        13.3355711447       12.0379636216       14.2014818804
  O        15.4910031764       12.0379755653        5.8850134006
  O        10.7827216512       12.0379620395       14.0389269017
  P        16.8238333127       12.0382725846        5.0658466193
  P        12.1118516393       12.0383820369       13.2482841599
 Ca        11.7732033463       12.0380410288       10.1825340335
 Ca        16.4881583932       12.0380287625       18.3400455827
  O        13.2488660178       12.0379722222        0.8169401280
  O        17.9677223890       12.0379698551        8.9525482392
  O        14.3866135643       12.0379799596        3.0962157716
  O         0.2569332488       12.0379700643       11.2396459315
  P        13.0717320783       12.0382800866        2.2580434189
  P        17.7540172568       12.0383108352       10.4806874815
 Ca        10.5573946184       12.0380413821        4.1434150514
 Ca        15.2695055280       12.0380206232       12.3111740294
 Ca        14.1359882457        6.8734671168        4.7922366247
 Ca         9.4244254424        6.8878646082       12.9592139419
 Ca         9.4232165001       10.3270564061        7.5163928429
 Ca        14.1370231496       10.3113430744       15.6822950925
 Ca         9.4232140102       13.7489786855        7.5163936198
 Ca        14.1370280072       13.7647237450       15.6822857309
 Ca        14.1359962649       10.3245111132        4.7922208470
 Ca         9.4244085271       10.3101050092       12.9592145504
  O        14.1358434067        7.9900000000       10.2384634414
  O         9.4248111422        7.9900000000       18.3985354515
  H        14.1359699344        7.1687746979       10.2380048623
  H         9.4259877229        7.1701811577       18.4041989728
  O        14.1354608423       11.4290000000       10.2388328277
  O         9.4214168751       11.4290000000       18.3979801736
  H        14.1360714093       10.6087209653       10.2380329356
  H         9.4260431321       10.6115101119       18.4033613164
  O        14.1355932955        5.7680000000       10.2393856376
  O         9.4213160820        5.7680000000       18.3981363602
  H        14.1360570385        6.5892130022       10.2379732246
  H         9.4260645028        6.5865968714       18.4033280672
  O        14.1369067811        9.2080000000       10.2386729610
  O         9.4250876896        9.2080000000       18.3990371634
  H        14.1359197932       10.0282727047       10.2379433982
  H         9.4259425505       10.0267195679       18.4041635027
  O         8.0198699196        6.6839864348       25.5103364403
  C         9.2759429110        7.2959628851       25.4711062693
  O        10.5312858992        7.9083688189       25.4294378229
     387
 i =        2, E =     -6913.4054138651
  O         0.8052327006        0.4744808493        4.8732075666
  O         5.5171978049        0.4747746075       13.0338621100
  O         6.7323865512        0.4761790825        8.1391482614
  O         2.0210824738        0.4650754820       16.2961331893
  O         1.8864773889        0.4756245475        9.5367517451
  O         6.6086160813        0.4575413180       17.6856109771
  O         3.9065742881        3.9148106756        7.4426829573
  O         8.6177290482        3.9170645664       15.5992432631
  O         7.4051788710        3.9031767916        4.1797170143
  O         2.6920974895        3.9161210978       12.3362503812
  O         2.8094526773        3.8939297939        2.7918263360
  O         7.5373399903        3.9153904069       10.9377500543
  O         3.9064061437        6.4038962741        7.4425683955
  O         8.6176044631        6.4016608982       15.5991709817
  O         7.4051619262        6.4155783771        4.1799216316
  O         2.6920100490        6.4026141861       12.3364896932
  O         2.8096561463        6.4248035476        2.7917226938
  O         7.5375378045        6.4033379103       10.9376629728
  O         0.8050586954        2.9647827941        4.8730763714
  O         5.5169904292        2.9644864102       13.0337660666
  O         6.7323869340        2.9630904931        8.1393569188
  O         2.0210609192        2.9741840035       16.2963464292
  O         1.8866628322        2.9636612396        9.5366496803
  O         6.6088142005        2.9817258477       17.6855033902
  O         3.0309571549        1.7200315913        4.7503360642
  O         7.7396974430        1.7200330118       12.9121027026
  O         1.6170490112        1.7200316225        6.8821080552
  O         6.3287141065        1.7200115920       15.0406645109
  P         1.5979923049        1.7197038238        5.3307355826
  P         6.3108975778        1.7197138694       13.4953495033
 Ca         8.1983976645        1.7199615209        4.0902427963
 Ca         3.4815470207        1.7199337044       12.2590362400
  O         5.5126133776        1.7200352607        6.2754485573
  O         0.7979499723        1.7200293594       14.4329823214
  O         8.0664853927        1.7200239815        6.4367175418
  O         3.3584114551        1.7200463986       14.5901617732
  P         6.7346573538        1.7197072292        7.2270153154
  P         2.0234981214        1.7196976330       15.4084362258
 Ca         2.3636390640        1.7199821579        2.1363748461
 Ca         7.0753398375        1.7199633510       10.2933560941
  O         0.8802678494        1.7200393900       11.5223708231
  O         5.5986706195        1.7200171725       19.6631226775
  O        18.5905745114        1.7200240394        9.2366609772
  O         4.4592964030        1.7200240283       17.3775219471
  P         1.0938375744        1.7196940608        9.9951753824
  P         5.7795303106        1.7197029116       18.2116075500
 Ca         3.5784407550        1.7199885169        8.1641635398
 Ca         8.2886025462        1.7199440811       16.3282714811
  O         1.6840189975        5.1589676098        7.5624107371
  O         6.3907758164        5.1589528367       15.7276849576
  O         3.0938739468        5.1589760100        5.4340933004
  O         7.8058796158        5.1590227506       13.5934731007
  P         3.1137612574        5.1593097456        6.9814790769
  P         7.8296196048        5.1592688598       15.1450517408
 Ca         5.9425260308        5.1590747266        8.2168430921
 Ca         1.2246754604        5.1590601180       16.3791241402
  O         8.6270999463        5.1589741840        6.0421048364
  O         3.9118895615        5.1589662531       14.2017655050
  O         6.0664849808        5.1589742140        5.8856976126
  O         1.3582496124        5.1589687163       14.0389839761
  P         7.3997422651        5.1592835898        5.0649751291
  P         2.6877837749        5.1593572836       13.2487116186
 Ca         2.3486983668        5.1590425613       10.1826379828
 Ca         7.0640573841        5.1589821164       18.3397761280
  O         3.8250297075        5.1589649540        0.8149264819
  O         8.5438426348        5.1589705052        8.9521716320
  O         4.9623684432        5.1589747515        3.0975647091
  O         9.6813413794        5.1589725761       11.2396984347
  P         3.6481080927        5.1592918622        2.2584580250
  P         8.3301349948        5.1593044557       10.4805572602
 Ca         1.1338845063        5.1590487263        4.1430104081
 Ca         5.8459576851        5.1590173498       12.3117898243
 Ca         4.7118975301       -0.0066118044        4.7916149389
 Ca         0.0004663877        0.0089145166       12.9595309114
 Ca        -0.0008438265        3.4480981977        7.5161418263
 Ca         4.7131737965        3.4310009219       15.6827314387
 Ca        -0.0008460719        6.8699378725        7.5161451939
 Ca         4.7131882160        6.8870962063       15.6827524881
 Ca         4.7119002690        3.4465969237        4.7915951239
 Ca         0.0004492719        3.4310426382       12.9595263832
  O         4.7121053625        1.1064463319       10.2386588960
  O         0.0002227052        1.1116191931       18.3978879629
  H         4.7119647319        0.2908463998       10.2380063474
  H         0.0024758527        0.2942283405       18.4050275861
  O         4.7120941299        4.5452850083       10.2389155059
  O        -0.0030283272        4.5481278740       18.3974686398
  H         4.7119874513        3.7308467550       10.2379659269
  H         0.0026225802        3.7339816286       18.4040960358
  O         4.7120350986       12.6516374474       10.2394368567
  O        -0.0030927164       12.6489814813       18.3975775393
  H         4.7119868758       13.4671343325       10.2379031779
  H         0.0026410805       13.4639196019       18.4040789456
  O         4.7125659014        2.3335665259       10.2386801512
  O         0.0009124987        2.3282714020       18.3983753276
  H         4.7119722200        3.1481935081       10.2380037651
  H         0.0023526527        3.1448690052       18.4049717411
  O        10.2292284564        0.4744836819        4.8731983463
  O        14.9412056895        0.4747967649       13.0338682653
  O        16.1564087948        0.4761673065        8.1391426348
  O        11.4450782014        0.4650758004       16.2960993182
  O        11.3104724171        0.4756132510        9.5367640451
  O        16.0326246716        0.4575863837       17.6856384724
  O        13.3305960549        3.9148170437        7.4426811107
  O        18.0417484502        3.9170630226       15.5992735277
  O        16.8291737358        3.9031759633        4.1797220816
  O        12.1161042178        3.9161188556       12.3362289795
  O        12.2334473209        3.8939372718        2.7918232844
  O        16.9613452510        3.9153849809       10.9377438735
  O        13.3304259624        6.4038892762        7.4425651932
  O        18.0415949513        6.4016567089       15.5991578546
  O        16.8291549823        6.4155773186        4.1799240419
  O        12.1160037798        6.4026245398       12.3364852684
  O        12.2336460688        6.4248151842        2.7917195322
  O        16.9615432630        6.4033365172       10.9376566756
  O        10.2290575608        2.9647931713        4.8730747747
  O        14.9409923238        2.9644958682       13.0337726682
  O        16.1563727245        2.9630821691        8.1393846779
  O        11.4450595055        2.9741896466       16.2963203087
  O        11.3106617907        2.9636663067        9.5366555983
  O        16.0328247037        2.9816904357       17.6855296191
  O        12.4549563677        1.7200332966        4.7503310320
  O        17.1637115076        1.7200358155       12.9121028339
  O        11.0410379347        1.7200307926        6.8821027664
  O        15.7527373265        1.7200058111       15.0406950953
  P        11.0219975546        1.7196983725        5.3307488367
  P        15.7348663043        1.7196984746       13.4953272876
 Ca        17.6223948543        1.7199675332        4.0902392949
 Ca        12.9055664880        1.7199328838       12.2590940853
  O        14.9366259834        1.7200339623        6.2754530277
  O        10.2219299391        1.7200289620       14.4329621020
  O        17.4904865023        1.7200238651        6.4367239931
  O        12.7824405454        1.7200457740       14.5901440112
  P        16.1586427216        1.7196849371        7.2269933387
  P        11.4474928748        1.7196994379       15.4084222202
 Ca        11.7876411202        1.7199772884        2.1363753695
 Ca        16.4993724521        1.7199792259       10.2933942971
  O        10.3042713667        1.7200373475       11.5223753363
  O        15.0227111205        1.7200355969       19.6631837170
  O         9.1665786403        1.7200221676        9.2366612223
  O        13.8833357675        1.7200237156       17.3775474359
  P        10.5178295673        1.7197024411        9.9951689315
  P        15.2035217492        1.7196987047       18.2115059064
 Ca        13.0024855602        1.7199730721        8.1642272656
 Ca        17.7125531367        1.7199464913       16.3282002644
  O        11.1080168053        5.1589678054        7.5624110149
  O        15.8147815913        5.1589640745       15.7276957007
  O        12.5178619747        5.1589775282        5.4340802058
  O        17.2299225391        5.1589924647       13.5934756644
  P        12.5377656201        5.1593101363        6.9814831095
  P        17.2536075486        5.1593027507       15.1450296641
 Ca        15.3664961303        5.1590876426        8.2167507940
 Ca        10.6486818283        5.1590089549       16.3791529042
  O        18.0510977847        5.1589736244        6.0421117501
  O        13.3358906831        5.1589707325       14.2017627123
  O        15.4904768215        5.1589731710        5.8857254854
  O        10.7822543269        5.1589683953       14.0389656548
  P        16.8237555856        5.1592825811        5.0649622899
  P        12.1117787768        5.1593626049       13.2487374999
 Ca        11.7726476725        5.1590382885       10.1825979492
 Ca        16.4880577023        5.1590316941       18.3396881503
  O        13.2490315645        5.1589682684        0.8149276261
  O        17.9678396019        5.1589697843        8.9521657912
  O        14.3863628907        5.1589787413        3.0975619478
  O         0.2573348769        5.1589709344       11.2396979568
  P        13.0721162061        5.1592781235        2.2584622599
  P        17.7541426612        5.1593069730       10.4805678117
 Ca        10.5578928279        5.1590397625        4.1430239682
 Ca        15.2698994759        5.1590163766       12.3117449790
 Ca        14.1358869101       -0.0066144529        4.7916193603
 Ca         9.4244713667        0.0089172853       12.9595447927
 Ca         9.4231560122        3.4480974328        7.5161429882
 Ca        14.1371503327        3.4309933209       15.6827366540
 Ca         9.4231516600        6.8699381346        7.5161423881
 Ca        14.1371739078        6.8870787004       15.6827248301
 Ca        14.1359019080        3.4465826289        4.7915954553
 Ca         9.4244488701        3.4310392479       12.9595313649
  O        14.1365190356        1.1064195752       10.2382558061
  O         9.4247040307        1.1116240935       18.3984441652
  H        14.1358720936        0.2908107552       10.2380129173
  H         9.4263809279        0.2942575200       18.4049360798
  O        14.1357476839        4.5453581188       10.2384760931
  O         9.4210945855        4.5481340363       18.3974578530
  H        14.1360186698        3.7308264643       10.2380888154
  H         9.4266552745        3.7340822401       18.4041222935
  O        14.1356875012       12.6515426303       10.2391513057
  O         9.4210101822       12.6489547116       18.3975312560
  H        14.1360771229       13.4671525137       10.2379795151
  H         9.4266422632       13.4637397231       18.4040711782
  O        14.1361930221        2.3337015122       10.2391802557
  O         9.4245060519        2.3282743115       18.3978336392
  H        14.1360084203        3.1481548296       10.2378683620
  H         9.4264314417        3.1449156934       18.4050635592
  O         0.8052304653        7.3534903094        4.8732085084
  O         5.5172045224        7.3537930131       13.0338577377
  O         6.7324058170        7.3551743359        8.1391375971
  O         2.0210872300        7.3440635859       16.2961352115
  O         1.8864719684        7.3546211773        9.5367508648
  O         6.6086166850        7.3366198623       17.6856007794
  O         3.9065943195       10.7938144772        7.4426946216
  O         8.6177591996       10.7960582894       15.5992746581
  O         7.4051795730       10.7821783808        4.1797172806
  O         2.6920963625       10.7951114976       12.3362471555
  O         2.8094493396       10.7729438926        2.7918226735
  O         7.5373394830       10.7943883738       10.9377530018
  O         3.9064262268       13.2828892408        7.4425759765
  O         8.6175715845       13.2806476973       15.5991228935
  O         7.4051568786       13.2945820577        4.1799203407
  O         2.6920017686       13.2816225279       12.3364911963
  O         2.8096482527       13.3038148811        2.7917181182
  O         7.5375380384       13.2823335576       10.9376693234
  O         0.8050647779        9.8437972129        4.8730867120
  O         5.5169911643        9.8434975899       13.0337563294
  O         6.7323665829        9.8420813628        8.1393761696
  O         2.0210570771        9.8531765092       16.2963556620
  O         1.8866680754        9.8426552276        9.5366524300
  O         6.6088248847        9.8606331691       17.6854953018
  O         3.0309515293        8.5990359118        4.7503415787
  O         7.7396969232        8.5990320113       12.9121068406
  O         1.6170493002        8.5990266018        6.8821150653
  O         6.3287276154        8.5989942204       15.0406906227
  P         1.5979947497        8.5986961118        5.3307274574
  P         6.3108865469        8.5987030247       13.4953409981
 Ca         8.1983883766        8.5989634081        4.0902431725
 Ca         3.4815519287        8.5989619002       12.2590408590
  O         5.5126160364        8.5990337110        6.2754563141
  O         0.7979489342        8.5990298334       14.4329869787
  O         8.0664867197        8.5990223336        6.4367183646
  O         3.3583886896        8.5990266853       14.5901593587
  P         6.7346527953        8.5986837324        7.2270080526
  P         2.0235151677        8.5987145991       15.4084407615
 Ca         2.3636374666        8.5989705231        2.1363721697
 Ca         7.0753304669        8.5989656584       10.2933533890
  O         0.8802671517        8.5990369935       11.5223704060
  O         5.5986737369        8.5990608412       19.6630792661
  O        18.5905738466        8.5990218607        9.2366645946
  O         4.4592785366        8.5990100211       17.3774859290
  P         1.0938399029        8.5987014407        9.9951734169
  P         5.7795980915        8.5987182939       18.2116354879
 Ca         3.5784394600        8.5989709749        8.1641550823
 Ca         8.2885214151        8.5989541718       16.3281772986
  O         1.6840235825       12.0379665910        7.5624100780
  O         6.3907847286       12.0379690377       15.7276780728
  O         3.0938601654       12.0379773454        5.4340894427
  O         7.8059218618       12.0379677062       13.5934461998
  P         3.1137515951       12.0383124916        6.9814682765
  P         7.8296121234       12.0383433560       15.1450636329
 Ca         5.9425193332       12.0380727689        8.2168006532
 Ca         1.2247002824       12.0380716035       16.3791254470
  O         8.6270972695       12.0379741179        6.0421087859
  O         3.9118912847       12.0379686479       14.2017538418
  O         6.0664822914       12.0379770090        5.8857132275
  O         1.3582459398       12.0379650228       14.0389754263
  P         7.3997492090       12.0382803570        5.0649714713
  P         2.6877861665       12.0383661179       13.2487201326
 Ca         2.3486974865       12.0380582363       10.1826361068
 Ca         7.0640562590       12.0380781319       18.3396992805
  O         3.8250285061       12.0379713481        0.8149213400
  O         8.5438423041       12.0379690173        8.9521675483
  O         4.9623601358       12.0379818820        3.0975591783
  O         9.6813432259       12.0379671600       11.2396967808
  P         3.6481150386       12.0382742562        2.2584737448
  P         8.3301398933       12.0383113241       10.4805589826
 Ca         1.1338924069       12.0380391407        4.1430205341
 Ca         5.8459423863       12.0380088361       12.3118292180
 Ca         4.7118921344        6.8723829735        4.7916045118
 Ca         0.0004658158        6.8879135075       12.9595314679
 Ca        -0.0008427585       10.3270972842        7.5161340183
 Ca         4.7131689534       10.3100042219       15.6827655926
 Ca        -0.0008463188       13.7489387692        7.5161428373
 Ca         4.7131789947       13.7660444283       15.6827372254
 Ca         4.7119054553       10.3255769996        4.7915944739
 Ca         0.0004501667       10.3100501142       12.9595260821
  O         4.7123778951        7.9854150091       10.2380074971
  O         0.0006670015        7.9906252042       18.3984053138
  H         4.7119164367        7.1698938214       10.2380969651
  H         0.0023939211        7.1732863298       18.4049250165
  O         4.7110703695       11.4243473739       10.2384771182
  O        -0.0029959544       11.4271199488       18.3974559452
  H         4.7121379212       10.6097840668       10.2380483271
  H         0.0026123380       10.6129168702       18.4041173159
  O         4.7110283479        5.7726441815       10.2392080114
  O        -0.0031464540        5.7699757863       18.3975831698
  H         4.7121372536        6.5880706260       10.2379253067
  H         0.0026379676        6.5848867548       18.4040422669
  O         4.7126376976        9.2126521001       10.2394390204
  O         0.0004654966        9.2072785482       18.3978785542
  H         4.7119049270       10.0271776082       10.2378777420
  H         0.0024278112       10.0239100141       18.4050555232
  O        10.2292295928        7.3534833766        4.8731959833
  O        14.9412049251        7.3537921616       13.0338678177
  O        16.1563907167        7.3551675231        8.1391589531
  O        11.4451052458        7.3440783616       16.2961468270
  O        11.3104703976        7.3546140583        9.5367619983
  O        16.0326197765        7.3365585735       17.6856086214
  O        13.3305838366       10.7938199208        7.4426836408
  O        18.0417557293       10.7960490588       15.5992755412
  O        16.8291768333       10.7821835502        4.1797226390
  O        12.1161072973       10.7951091754       12.3362226266
  O        12.2334489876       10.7729320400        2.7918223949
  O        16.9613446138       10.7943778759       10.9377406680
  O        13.3304129861       13.2828822100        7.4425638329
  O        18.0415958052       13.2806637023       15.5991563396
  O        16.8291606408       13.2945791808        4.1799204367
  O        12.1159965203       13.2816242040       12.3364831183
  O        12.2336508101       13.3038088290        2.7917184907
  O        16.9615459559       13.2823347254       10.9376544053
  O        10.2290579554        9.8437886867        4.8730737842
  O        14.9409909186        9.8434791087       13.0337748137
  O        16.1563879929        9.8420818591        8.1393738909
  O        11.4450762629        9.8531617130       16.2963660011
  O        11.3106655417        9.8426601723        9.5366587116
  O        16.0328254261        9.8606723503       17.6855023975
  O        12.4549565135        8.5990338153        4.7503295747
  O        17.1637035378        8.5990325856       12.9121055686
  O        11.0410389454        8.5990289981        6.8821021111
  O        15.7527295844        8.5990040831       15.0406957156
  P        11.0219966189        8.5987013440        5.3307493146
  P        15.7348690825        8.5987076432       13.4953198021
 Ca        17.6223987049        8.5989567459        4.0902280775
 Ca        12.9055712344        8.5989420524       12.2590858877
  O        14.9366246886        8.5990352948        6.2754556052
  O        10.2219701520        8.5990265075       14.4329882307
  O        17.4904834706        8.5990298810        6.4367288138
  O        12.7823877443        8.5990365982       14.5901495529
  P        16.1586457292        8.5987029481        7.2269892977
  P        11.4474854154        8.5987119317       15.4085009935
 Ca        11.7876435168        8.5989790411        2.1363734586
 Ca        16.4993682104        8.5989839836       10.2933909466
  O        10.3042715241        8.5990380202       11.5223794006
  O        15.0227258288        8.5990373086       19.6631123897
  O         9.1665781782        8.5990259902        9.2366649474
  O        13.8833044697        8.5990128785       17.3775113899
  P        10.5178320129        8.5987002884        9.9951650414
  P        15.2035488259        8.5987264664       18.2116067463
 Ca        13.0024867256        8.5989757644        8.1642294192
 Ca        17.7125447401        8.5989515093       16.3281976512
  O        11.1080134186       12.0379654702        7.5624113784
  O        15.8147958415       12.0379617937       15.7276859747
  O        12.5178660756       12.0379756484        5.4340814360
  O        17.2299075383       12.0379874291       13.5934808131
  P        12.5377758356       12.0383165118        6.9814908284
  P        17.2535949502       12.0383133762       15.1450335809
 Ca        15.3664998855       12.0380849103        8.2167855295
 Ca        10.6486911718       12.0381212958       16.3791476124
  O        18.0511007052       12.0379753511        6.0421091966
  O        13.3358866551       12.0379613515       14.2017520219
  O        15.4904908624       12.0379741498        5.8857027301
  O        10.7822534473       12.0379593302       14.0389629866
  P        16.8237412863       12.0382760275        5.0649694708
  P        12.1117884311       12.0383857754       13.2487460457
 Ca        11.7726494232       12.0380479311       10.1826005398
 Ca        16.4880392672       12.0380306109       18.3396741905
  O        13.2490321168       12.0379683562        0.8149264054
  O        17.9678403560       12.0379669719        8.9521641803
  O        14.3863644243       12.0379770107        3.0975606969
  O         0.2573372778       12.0379675152       11.2396978756
  P        13.0721139523       12.0382865667        2.2584631150
  P        17.7541421550       12.0383162801       10.4805682224
 Ca        10.5578892357       12.0380449848        4.1430214293
 Ca        15.2698970244       12.0380246341       12.3117410972
 Ca        14.1358927825        6.8723877425        4.7916153174
 Ca         9.4244640982        6.8879144256       12.9595312257
 Ca         9.4231587203       10.3270990026        7.5161406510
 Ca        14.1371554364       10.3100130540       15.6827470457
 Ca         9.4231561244       13.7489411625        7.5161417296
 Ca        14.1371609358       13.7660526910       15.6827353978
 Ca        14.1359017445       10.3255885235        4.7915995888
 Ca         9.4244461297       10.3100533757       12.9595323992
  O        14.1358257755        7.9853475620       10.2385324414
  O         9.4244370405        7.9906316804       18.3978800108
  H        14.1359732059        7.1698368988       10.2380027007
  H         9.4264088555        7.1733388304       18.4049880792
  O        14.1354403260       11.4243735412       10.2389441696
  O         9.4208627666       11.4271271503       18.3975595215
  H        14.1360931220       10.6098594596       10.2380142909
  H         9.4265846948       10.6129245731       18.4040377828
  O        14.1355729744        5.7724904292       10.2395348799
  O         9.4207557223        5.7699908015       18.3977343805
  H        14.1360750918        6.5881883169       10.2379337586
  H         9.4266072682        6.5849718039       18.4039943210
  O        14.1369481800        9.2127613524       10.2387564113
  O         9.4247354014        9.2072631736       18.3984363185
  H        14.1358899223       10.0271068999       10.2379312882
  H         9.4263539657       10.0237722467       18.4049363827
  O         8.0291470771        6.6884894159       25.5099035768
  C         9.2759433499        7.2959734973       25.4710906979
  O        10.5219284038        7.9038000993       25.4296124838
     387
 i =        3, E =     -6913.5794734833
  O         0.8008655854        0.4713789413        4.8717671498
  O         5.5128085294        0.4701109460       13.0301842105
  O         6.7332970445        0.4716713905        8.1427316874
  O         2.0247329869        0.4512386849       16.2934607597
  O         1.8894710354        0.4713833522        9.5339659135
  O         6.6091094550        0.4473986632       17.6813029699
  O         3.9108895636        3.9102779283        7.4474677440
  O         8.6212850176        3.9144316104       15.5977451918
  O         7.4048463260        3.8905594713        4.1813796343
  O         2.6916132059        3.9119056797       12.3317168509
  O         2.8042984183        3.8878162418        2.7966848427
  O         7.5342244541        3.9111130043       10.9388402464
  O         3.9106675355        6.4083954803        7.4472944879
  O         8.6211212457        6.4042775486       15.5976448225
  O         7.4048300893        6.4281806267        4.1815824222
  O         2.6915121117        6.4068088051       12.3320470929
  O         2.8045465785        6.4308387155        2.7965890979
  O         7.5344633045        6.4075922774       10.9387288120
  O         0.8006603695        2.9678998702        4.8715775272
  O         5.5125743332        2.9692177964       13.0300084395
  O         6.7332550789        2.9676665834        8.1430271074
  O         2.0247179501        2.9881137372       16.2936975686
  O         1.8897377000        2.9679626474        9.5338505412
  O         6.6093149080        2.9919597033       17.6811836925
  O         3.0375487425        1.7200483332        4.7500310198
  O         7.7439191204        1.7200633524       12.9088284764
  O         1.6187655331        1.7200421164        6.8890072169
  O         6.3293936314        1.7200586086       15.0427182407
  P         1.5995425423        1.7197093337        5.3282028768
  P         6.3112239641        1.7196303035       13.4973341605
 Ca         8.2006220375        1.7199667388        4.0905888698
 Ca         3.4790993850        1.7198222352       12.2677001854
  O         5.5089640431        1.7200577929        6.2723495016
  O         0.7949564710        1.7200556908       14.4286430614
  O         8.0720410779        1.7200303826        6.4352215220
  O         3.3650056544        1.7200660274       14.5833594185
  P         6.7349498046        1.7196597477        7.2229738449
  P         2.0241997694        1.7196746426       15.4200236156
 Ca         2.3700799681        1.7199827184        2.1402708479
 Ca         7.0809234895        1.7198707073       10.2926118862
  O         0.8790469550        1.7200656175       11.5265543695
  O         5.5969189542        1.7200450132       19.6798292696
  O        18.5860552407        1.7200438120        9.2361084491
  O         4.4616240267        1.7200636788       17.3632780637
  P         1.0931222423        1.7196319400        9.9958840572
  P         5.7751972180        1.7196738655       18.2138970134
 Ca         3.5746491349        1.7199176973        8.1585726554
 Ca         8.2865090370        1.7199233107       16.3350701572
  O         1.6795634494        5.1589604441        7.5649279905
  O         6.3828001260        5.1589449161       15.7303613840
  O         3.0911733525        5.1589725519        5.4311539029
  O         7.8027838903        5.1590165215       13.5866765368
  P         3.1131966229        5.1593223984        6.9793879212
  P         7.8294584889        5.1592705812       15.1470997414
 Ca         5.9449806519        5.1591494013        8.2084012281
 Ca         1.2201261917        5.1590476915       16.3754196583
  O         8.6301149970        5.1589745996        6.0460583664
  O         3.9153658002        5.1589631948       14.2054307047
  O         6.0613170866        5.1589685984        5.8924586012
  O         1.3529036341        5.1589693034       14.0397051235
  P         7.3987450088        5.1592571578        5.0563858232
  P         2.6871265301        5.1593331979       13.2523354735
 Ca         2.3430943646        5.1591320875       10.1833790737
 Ca         7.0630521267        5.1589649674       18.3353506273
  O         3.8266548355        5.1589302062        0.7952984521
  O         8.5452697177        5.1589611453        8.9479077458
  O         4.9594014565        5.1589629227        3.1127300883
  O         9.6856789045        5.1589684895       11.2403095953
  P         3.6521285790        5.1593200700        2.2604397690
  P         8.3309658438        5.1593110011       10.4794981692
 Ca         1.1395546695        5.1590664947        4.1387099952
 Ca         5.8500253377        5.1591014560       12.3173025648
 Ca         4.7107452127       -0.0189102410        4.7849979854
 Ca         0.0009182650        0.0094776064       12.9627782999
 Ca        -0.0015301234        3.4485463629        7.5136083231
 Ca         4.7148158701        3.4157245404       15.6872679421
 Ca        -0.0015271236        6.8695028886        7.5136103752
 Ca         4.7148310850        6.9024225526       15.6872883175
 Ca         4.7107505612        3.4588489571        4.7849612664
 Ca         0.0008880715        3.4304351525       12.9627735130
  O         4.7119700784        1.0723972747       10.2394975554
  O        -0.0047424067        1.1166625088       18.3890216160
  H         4.7119258160        0.2838855436       10.2379363196
  H         0.0079746891        0.3140484349       18.4153410272
  O         4.7123776245        4.5084744468       10.2400740156
  O        -0.0100764227        4.5307441895       18.3914226421
  H         4.7119462194        3.7281818886       10.2375953993
  H         0.0097902138        3.7326365435       18.4128253266
  O         4.7123386144       12.6847033466       10.2411196470
  O        -0.0102148385       12.6668555456       18.3917166950
  H         4.7119480252       13.4744001208       10.2372678120
  H         0.0098027163       13.4644420314       18.4127130139
  O         4.7129567951        2.3710239704       10.2397529366
  O        -0.0033313142        2.3226596237       18.3901930466
  H         4.7117589634        3.1505695030       10.2378331376
  H         0.0074773851        3.1258646524       18.4150466451
  O        10.2248722222        0.4713671669        4.8717890981
  O        14.9368096597        0.4701062228       13.0301576992
  O        16.1573072712        0.4716585267        8.1427337131
  O        11.4487188870        0.4512334131       16.2934339197
  O        11.3134787954        0.4713629872        9.5339930876
  O        16.0330866581        0.4474319231       17.6813166892
  O        13.3348882376        3.9103017333        7.4474421717
  O        18.0452944102        3.9144475809       15.5977660312
  O        16.8288591568        3.8905597576        4.1813815698
  O        12.1155822736        3.9119155378       12.3317195768
  O        12.2283078871        3.8878914555        2.7966836480
  O        16.9582400763        3.9111307975       10.9388325234
  O        13.3346991533        6.4084003270        7.4473086791
  O        18.0451101196        6.4042803584       15.5976066403
  O        16.8288086170        6.4281791204        4.1815882081
  O        12.1154963319        6.4068207167       12.3320416719
  O        12.2285300251        6.4309174411        2.7965798991
  O        16.9584644403        6.4075843561       10.9387171540
  O        10.2246728960        2.9679092767        4.8716035306
  O        14.9365723793        2.9692231539       13.0300453242
  O        16.1572484830        2.9676326938        8.1430357616
  O        11.4487085852        2.9881171739       16.2936816312
  O        11.3137032304        2.9679507753        9.5338573790
  O        16.0333195161        2.9919235236       17.6811986289
  O        12.4615118595        1.7200473078        4.7500601401
  O        17.1679157273        1.7200513061       12.9088290555
  O        11.0427573653        1.7200395620        6.8890305293
  O        15.7534053715        1.7200178807       15.0427171824
  P        11.0235555731        1.7197191667        5.3281694341
  P        15.7352229081        1.7196885057       13.4973475722
 Ca        17.6245738972        1.7199688724        4.0906276005
 Ca        12.9031227687        1.7198830568       12.2677377169
  O        14.9329863345        1.7200497265        6.2723787435
  O        10.2189444351        1.7200508003       14.4286353818
  O        17.4960485259        1.7200242906        6.4352091544
  O        12.7890129852        1.7200681339       14.5833574459
  P        16.1589167934        1.7196799309        7.2229656729
  P        11.4482095437        1.7196851481       15.4199830514
 Ca        11.7940715469        1.7199867375        2.1402624074
 Ca        16.5049496435        1.7199146399       10.2926529706
  O        10.3030475496        1.7200557096       11.5265526211
  O        15.0209478124        1.7200749311       19.6798068326
  O         9.1620539926        1.7200236675        9.2361131201
  O        13.8856181248        1.7200565236       17.3632815548
  P        10.5171270567        1.7196834479        9.9958765105
  P        15.1992363168        1.7196666723       18.2139096030
 Ca        12.9987054582        1.7199706459        8.1586443335
 Ca        17.7104772624        1.7199189520       16.3350232824
  O        11.1035713061        5.1589641726        7.5649274574
  O        15.8067963782        5.1589555294       15.7303563669
  O        12.5151607660        5.1589932136        5.4311530270
  O        17.2268425383        5.1589779629       13.5866580812
  P        12.5371976779        5.1592851302        6.9793770417
  P        17.2534641910        5.1592789028       15.1470985762
 Ca        15.3689796385        5.1591180708        8.2082775486
 Ca        10.6441483886        5.1589972929       16.3754133852
  O        18.0541083654        5.1589704682        6.0460569679
  O        13.3393595640        5.1589719481       14.2054580931
  O        15.4853174944        5.1589763603        5.8924743198
  O        10.7768919581        5.1589761201       14.0397066492
  P        16.8227501506        5.1592597024        5.0563846463
  P        12.1111321366        5.1592986419       13.2523116923
 Ca        11.7670067031        5.1590730172       10.1833416798
 Ca        16.4870958338        5.1590328837       18.3352886346
  O        13.2506547000        5.1589616988        0.7953004697
  O        17.9692654016        5.1589652103        8.9479047398
  O        14.3833983555        5.1590043970        3.1127287133
  O         0.2616814707        5.1589698866       11.2403097263
  P        13.0761307460        5.1592088135        2.2604427660
  P        17.7549703444        5.1592908498       10.4795042714
 Ca        10.5635585503        5.1590077799        4.1387196419
 Ca        15.2740096771        5.1590776287       12.3173040065
 Ca        14.1347344430       -0.0188810529        4.7849699295
 Ca         9.4249105807        0.0094820502       12.9627829654
 Ca         9.4224723940        3.4485425679        7.5136001646
 Ca        14.1388116045        3.4157461300       15.6872652288
 Ca         9.4224606309        6.8694963124        7.5136089523
 Ca        14.1388387500        6.9023985311       15.6872635007
 Ca        14.1347476799        3.4587938145        4.7849330832
 Ca         9.4248912901        3.4304333117       12.9627668678
  O        14.1367532305        1.0710082466       10.2388330081
  O         9.4202185061        1.1166344256       18.3903929658
  H        14.1355592127        0.2858850673       10.2380547651
  H         9.4316086599        0.3139954289       18.4149403473
  O        14.1356329772        4.5100039435       10.2392542286
  O         9.4141546795        4.5307778036       18.3913698526
  H        14.1361192198        3.7263467389       10.2380317986
  H         9.4337693906        3.7326077953       18.4128295780
  O        14.1356175817       12.6863011130       10.2404564120
  O         9.4139908270       12.6667455399       18.3915882256
  H        14.1362689399       13.4719513000       10.2375268246
  H         9.4337953920       13.4644513351       18.4127471258
  O        14.1362670063        2.3697705269       10.2405865498
  O         9.4198142580        2.3227163234       18.3888872205
  H        14.1359464795        3.1527787887       10.2373691699
  H         9.4317780384        3.1258732866       18.4154120413
  O         0.8008587424        7.3503945488        4.8717727645
  O         5.5128380342        7.3491505891       13.0301313129
  O         6.7333145524        7.3506535006        8.1427353076
  O         2.0247556196        7.3301937499       16.2934588667
  O         1.8894720829        7.3503843780        9.5339669293
  O         6.6090967234        7.3264158142       17.6813047753
  O         3.9108822294       10.7892936949        7.4474674208
  O         8.6213101985       10.7934104410       15.5977735058
  O         7.4048636024       10.7695187202        4.1813500425
  O         2.6915995536       10.7908614135       12.3316933417
  O         2.8043055485       10.7668612359        2.7966869395
  O         7.5342086956       10.7900895889       10.9388374174
  O         3.9106845876       13.2873530685        7.4472871439
  O         8.6211215984       13.2832905136       15.5975982129
  O         7.4048173226       13.3071462745        4.1815907226
  O         2.6914104644       13.2858702102       12.3320441048
  O         2.8045341497       13.3098806663        2.7965759117
  O         7.5344988468       13.2865728210       10.9387466255
  O         0.8006822385        9.8469208664        4.8716237760
  O         5.5125697531        9.8481767938       13.0300085449
  O         6.7332175885        9.8466171007        8.1430787664
  O         2.0247057320        9.8670383009       16.2936847781
  O         1.8897376100        9.8469235981        9.5338622317
  O         6.6093458277        9.8708331589       17.6811836313
  O         3.0375230027        8.5990513274        4.7500543518
  O         7.7438955826        8.5990325790       12.9088537521
  O         1.6187773406        8.5990337233        6.8890464133
  O         6.3293968986        8.5989621427       15.0427259773
  P         1.5995484781        8.5987002334        5.3281602249
  P         6.3112093693        8.5987101796       13.4973008267
 Ca         8.2005878014        8.5989488108        4.0906612498
 Ca         3.4791418714        8.5989016170       12.2676797020
  O         5.5089725860        8.5990467502        6.2723672378
  O         0.7949548209        8.5990313722       14.4286453355
  O         8.0720488376        8.5990410857        6.4351933257
  O         3.3649637406        8.5990273059       14.5833613126
  P         6.7349190459        8.5986501783        7.2229641318
  P         2.0242219872        8.5987587775       15.4200472959
 Ca         2.3700574675        8.5989634883        2.1402532464
 Ca         7.0808991122        8.5988769587       10.2926056858
  O         0.8790469682        8.5990502548       11.5265566063
  O         5.5969327008        8.5990901432       19.6798441543
  O        18.5860482038        8.5990326502        9.2361393660
  O         4.4616318095        8.5989911143       17.3632636924
  P         1.0931500779        8.5986782248        9.9958640408
  P         5.7752418922        8.5987453890       18.2138581672
 Ca         3.5746569771        8.5988585003        8.1585751041
 Ca         8.2864254483        8.5989535512       16.3349746513
  O         1.6795760219       12.0379416893        7.5649172728
  O         6.3828213620       12.0379456788       15.7303374545
  O         3.0911661645       12.0379589993        5.4311410289
  O         7.8028794582       12.0379656269       13.5866338696
  P         3.1132161733       12.0383594760        6.9794165326
  P         7.8294212042       12.0383239880       15.1470896810
 Ca         5.9449534859       12.0381728348        8.2083598604
 Ca         1.2201973542       12.0380905169       16.3754223738
  O         8.6301160910       12.0379499899        6.0460609317
  O         3.9153838342       12.0379416334       14.2054633455
  O         6.0613477692       12.0379668594        5.8924344372
  O         1.3528823704       12.0379355075       14.0397022359
  P         7.3987259025       12.0383186815        5.0564052140
  P         2.6871380837       12.0384126737       13.2523234301
 Ca         2.3430950066       12.0381521591       10.1833903235
 Ca         7.0630051116       12.0381066644       18.3352477302
  O         3.8266532419       12.0379497116        0.7953036127
  O         8.5452775256       12.0379380218        8.9478832997
  O         4.9593958366       12.0379755712        3.1127252862
  O         9.6857019584       12.0379352380       11.2403077843
  P         3.6521257756       12.0382598873        2.2604421024
  P         8.3309685274       12.0383806562       10.4795038723
 Ca         1.1395617035       12.0380359992        4.1387313244
 Ca         5.8500462856       12.0381036804       12.3173767101
 Ca         4.7107297789        6.8600923293        4.7849623796
 Ca         0.0009019307        6.8884661155       12.9627766322
 Ca        -0.0015194065       10.3275601611        7.5135792566
 Ca         4.7147892746       10.2948132721       15.6873160088
 Ca        -0.0015281914       13.7485210621        7.5136031441
 Ca         4.7148094213       13.7812517152       15.6872697280
 Ca         4.7107475174       10.3378477386        4.7849532964
 Ca         0.0008884681       10.3094841404       12.9627788918
  O         4.7125460910        7.9513384233       10.2384636105
  O        -0.0038298627        7.9957025412       18.3902722091
  H         4.7116635520        7.1628878291       10.2382860266
  H         0.0076401970        7.1929992124       18.4149635425
  O         4.7104444240       11.3878720609       10.2394619799
  O        -0.0100306692       11.4097856108       18.3913997206
  H         4.7126277141       10.6071547335       10.2379460705
  H         0.0097403441       10.6116698463       18.4128380841
  O         4.7103308231        5.8056242900       10.2406970735
  O        -0.0102927644        5.7879162083       18.3917122169
  H         4.7126536860        6.5953948220       10.2373776160
  H         0.0098389665        6.5854752267       18.4126892505
  O         4.7128558767        9.2505337061       10.2408663726
  O        -0.0042448450        9.2017038289       18.3889656445
  H         4.7115684076       10.0295029890       10.2373704379
  H         0.0078035125       10.0048255128       18.4153972349
  O        10.2248567511        7.3504092792        4.8717334166
  O        14.9368270885        7.3491461885       13.0301412097
  O        16.1572801272        7.3506499243        8.1427465452
  O        11.4487631287        7.3301950625       16.2934874991
  O        11.3134725723        7.3503792718        9.5339763203
  O        16.0330783823        7.3263797597       17.6812802391
  O        13.3348778697       10.7893157392        7.4474656674
  O        18.0452894970       10.7934112771       15.5977521139
  O        16.8288397892       10.7695239243        4.1813586257
  O        12.1156396229       10.7909152462       12.3316883317
  O        12.2282949687       10.7667854644        2.7966805434
  O        16.9582234779       10.7900975465       10.9388151692
  O        13.3346658839       13.2873334137        7.4472948547
  O        18.0451219136       13.2832752241       15.5976119561
  O        16.8288302822       13.3071444592        4.1815930324
  O        12.1154341682       13.2858526855       12.3320311389
  O        12.2285473832       13.3098029995        2.7965766927
  O        16.9584720982       13.2865787399       10.9387243867
  O        10.2246690364        9.8469025138        4.8715812471
  O        14.9365835612        9.8481509381       13.0300111409
  O        16.1572497251        9.8466110832        8.1430472156
  O        11.4487096392        9.8670418300       16.2937102166
  O        11.3137278516        9.8469195148        9.5338727385
  O        16.0333098094        9.8708635531       17.6811678161
  O        12.4615555025        8.5990523841        4.7500171066
  O        17.1678798511        8.5990402332       12.9088521002
  O        11.0427666809        8.5990387370        6.8890137791
  O        15.7533887219        8.5989967372       15.0427044015
  P        11.0235335634        8.5986922338        5.3282065021
  P        15.7352070143        8.5987006357       13.4972985821
 Ca        17.6246493306        8.5989409639        4.0906017821
 Ca        12.9031835649        8.5989018495       12.2677042849
  O        14.9329702012        8.5990470132        6.2723381208
  O        10.2189744805        8.5990324766       14.4286630030
  O        17.4960306461        8.5990472452        6.4352201992
  O        12.7889203816        8.5990359502       14.5833778564
  P        16.1589504902        8.5986867056        7.2229852714
  P        11.4482329471        8.5987483649       15.4200644225
 Ca        11.7940731171        8.5989630006        2.1402712649
 Ca        16.5049126898        8.5989496598       10.2926443008
  O        10.3030545180        8.5990521030       11.5265654205
  O        15.0209547986        8.5990545995       19.6797956005
  O         9.1620474015        8.5990462648        9.2361335059
  O        13.8856098095        8.5990022015       17.3632463865
  P        10.5171529239        8.5986794524        9.9958642229
  P        15.1992649587        8.5987483194       18.2139346883
 Ca        12.9987100692        8.5988813822        8.1586747213
 Ca        17.7104652902        8.5989553228       16.3350366233
  O        11.1035860260       12.0379443885        7.5649161608
  O        15.8068198159       12.0379397951       15.7303397383
  O        12.5151726403       12.0379543600        5.4311525703
  O        17.2268290649       12.0379924334       13.5866400771
  P        12.5372275224       12.0383483482        6.9794217388
  P        17.2534462215       12.0383165921       15.1471144634
 Ca        15.3689497513       12.0381522600        8.2083195812
 Ca        10.6441969288       12.0381403501       16.3754187242
  O        18.0541106773       12.0379546631        6.0460618067
  O        13.3393573715       12.0379386227       14.2054203460
  O        15.4853567626       12.0379554476        5.8924298986
  O        10.7768946951       12.0379322074       14.0396947323
  P        16.8227299853       12.0383132834        5.0563984421
  P        12.1111517040       12.0384047458       13.2523410412
 Ca        11.7670159636       12.0381180012       10.1833495634
 Ca        16.4870316450       12.0380454736       18.3352673143
  O        13.2506544042       12.0379189857        0.7953034890
  O        17.9692661275       12.0379381578        8.9478925697
  O        14.3833913316       12.0379341771        3.1127223036
  O         0.2616853086       12.0379419828       11.2403078554
  P        13.0761299624       12.0383703197        2.2604427946
  P        17.7549806519       12.0383534054       10.4795109685
 Ca        10.5635551929       12.0380940785        4.1387367831
 Ca        15.2740127427       12.0380626967       12.3173094611
 Ca        14.1347305277        6.8600580765        4.7849968766
 Ca         9.4248955204        6.8884665645       12.9627630508
 Ca         9.4224722424       10.3275650751        7.5135938098
 Ca        14.1388023433       10.2947824345       15.6873179622
 Ca         9.4224665570       13.7485308883        7.5135918512
 Ca        14.1388146061       13.7812755248       15.6872841577
 Ca        14.1347488155       10.3378927688        4.7849825113
 Ca         9.4248735233       10.3094847372       12.9627759133
  O        14.1355989243        7.9496731996       10.2393689444
  O         9.4197006294        7.9956959457       18.3890141758
  H        14.1360042268        7.1649397790       10.2379458596
  H         9.4317750906        7.1930130899       18.4152853711
  O        14.1351661434       11.3892170161       10.2402956535
  O         9.4137145419       11.4097432644       18.3916708142
  H        14.1364248909       10.6053151640       10.2376799588
  H         9.4337762652       10.6116548770       18.4126804437
  O        14.1353144331        5.8069626942       10.2413713892
  O         9.4135248078        5.7880405006       18.3920994239
  H        14.1363255870        6.5929454943       10.2372891106
  H         9.4338165842        6.5855054093       18.4124869835
  O        14.1374806369        9.2490484597       10.2397755987
  O         9.4202952043        9.2016814584       18.3903691583
  H        14.1354434946       10.0317628714       10.2377170584
  H         9.4315752775       10.0048575400       18.4149619966
  O         8.1340513152        6.7405787216       25.5050727595
  C         9.2759511845        7.2960875682       25.4708679343
  O        10.4165571932        7.8510303837       25.4315269153
     387
 i =        4, E =     -6913.6359400280
  O         0.7986820817        0.4703005214        4.8706208827
  O         5.5110208787        0.4686465001       13.0295375669
  O         6.7342281647        0.4702240715        8.1434925640
  O         2.0273283549        0.4440299875       16.2920863455
  O         1.8900801398        0.4698503656        9.5323550650
  O         6.6079793438        0.4431322417       17.6797754207
  O         3.9126516258        3.9088889539        7.4490525018
  O         8.6231069443        3.9132098987       15.5968348537
  O         7.4043547676        3.8842890639        4.1823498366
  O         2.6909904350        3.9106567154       12.3303330844
  O         2.8022737774        3.8857888270        2.7985277037
  O         7.5334334608        3.9095239198       10.9394419987
  O         3.9123834555        6.4097285237        7.4487862092
  O         8.6229290798        6.4054886407       15.5967263767
  O         7.4043362287        6.4344304206        4.1825563475
  O         2.6908265306        6.4080145810       12.3307758548
  O         2.8025422290        6.4328446496        2.7984397998
  O         7.5337455097        6.4091324323       10.9393239078
  O         0.7984664671        2.9689810570        4.8703964006
  O         5.5107666378        2.9707250632       13.0292757598
  O         6.7341284943        2.9691634297        8.1438791718
  O         2.0273185607        2.9953381890       16.2923205011
  O         1.8904466290        2.9695412861        9.5322475799
  O         6.6081750848        2.9962504849       17.6796554899
  O         3.0411738182        1.7200597021        4.7497150820
  O         7.7456722783        1.7200829039       12.9076423104
  O         1.6196405008        1.7200480321        6.8907372463
  O         6.3298310023        1.7200930353       15.0448664675
  P         1.6002520301        1.7197225866        5.3281646936
  P         6.3105884944        1.7195777516       13.4955420045
 Ca         8.2022822657        1.7199697605        4.0914247960
 Ca         3.4783375384        1.7196683703       12.2710671406
  O         5.5072284875        1.7200769486        6.2697213490
  O         0.7949181152        1.7200688725       14.4284489529
  O         8.0751444601        1.7200464106        6.4338806283
  O         3.3672976624        1.7200740486       14.5818960501
  P         6.7349144629        1.7196157744        7.2227530356
  P         2.0247139627        1.7196985504       15.4238742719
 Ca         2.3741085607        1.7199830692        2.1429199532
 Ca         7.0828784504        1.7197238209       10.2920191008
  O         0.8782305475        1.7200862029       11.5289232628
  O         5.5958705025        1.7200592282       19.6875034340
  O        18.5839449565        1.7200677594        9.2358961609
  O         4.4635727912        1.7200828697       17.3561736521
  P         1.0936892612        1.7195785237        9.9955872385
  P         5.7740695514        1.7196858172       18.2154018148
 Ca         3.5731262933        1.7197771151        8.1567859473
 Ca         8.2850327643        1.7199231855       16.3385200102
  O         1.6775757568        5.1589454123        7.5656673841
  O         6.3784504740        5.1589364546       15.7321492793
  O         3.0894195865        5.1589560279        5.4289092886
  O         7.8009772284        5.1590144230       13.5849431085
  P         3.1137228566        5.1593742410        6.9807022437
  P         7.8289870943        5.1592660919       15.1466890077
 Ca         5.9458250905        5.1592940887        8.2048451134
 Ca         1.2164959535        5.1590454664       16.3726828004
  O         8.6304171545        5.1589690749        6.0466052438
  O         3.9169808775        5.1589489126       14.2086180029
  O         6.0595921818        5.1589634963        5.8943241988
  O         1.3498222154        5.1589491488       14.0405792072
  P         7.3983392209        5.1592500711        5.0535763157
  P         2.6869956918        5.1593767535       13.2519232189
 Ca         2.3409904425        5.1592920310       10.1837616449
 Ca         7.0632387681        5.1589598403       18.3322390896
  O         3.8273974638        5.1589111609        0.7870477150
  O         8.5462263069        5.1589434467        8.9457845573
  O         4.9570854322        5.1589555679        3.1206656095
  O         9.6877314324        5.1589499176       11.2406979200
  P         3.6531424998        5.1593118624        2.2597264387
  P         8.3304876346        5.1593555642       10.4792405607
 Ca         1.1430580241        5.1590731521        4.1364717948
 Ca         5.8517953672        5.1592467722       12.3189496553
 Ca         4.7099279960       -0.0261693785        4.7818113038
 Ca         0.0011991307        0.0097769340       12.9640349402
 Ca        -0.0020072002        3.4487891393        7.5126027054
 Ca         4.7161094566        3.4064472573       15.6888290476
 Ca        -0.0020012400        6.8692791958        7.5126125956
 Ca         4.7161266843        6.9117230819       15.6888382266
 Ca         4.7099380447        3.4660764939        4.7817623075
 Ca         0.0011558442        3.4301160830       12.9640366049
  O         4.7118328331        1.0709306272       10.2402511792
  O        -0.0092241235        1.1174002036       18.3799683340
  H         4.7119101546        0.2741796886       10.2378456636
  H         0.0128480886        0.3203857716       18.4249844102
  O         4.7126358287        4.5021729175       10.2411331202
  O        -0.0164122728        4.5231018869       18.3850515858
  H         4.7118933411        3.7292494835       10.2370745355
  H         0.0167460077        3.7263085606       18.4204694087
  O         4.7126173692       12.6847390239       10.2425215940
  O        -0.0166429943       12.6744095966       18.3855381861
  H         4.7118913482       13.4836450705       10.2363967844
  H         0.0167393348       13.4709756825       18.4202327818
  O         4.7132825231        2.3789156835       10.2406981317
  O        -0.0070021627        2.3219552669       18.3819554747
  H         4.7114830223        3.1497369984       10.2375365201
  H         0.0118671481        3.1193824524       18.4243235172
  O        10.2226900060        0.4702802620        4.8706540522
  O        14.9350193729        0.4686223775       13.0294788299
  O        16.1582274348        0.4701980840        8.1435170862
  O        11.4513092718        0.4440042588       16.2920712600
  O        11.3141120389        0.4698129659        9.5323914002
  O        16.0319339202        0.4431405513       17.6797795420
  O        13.3366403537        3.9089168403        7.4489945701
  O        18.0471273987        3.9132228168       15.5968542312
  O        16.8283739938        3.8842887217        4.1823490777
  O        12.1149237325        3.9106645425       12.3303465500
  O        12.2262799082        3.8858730472        2.7985300652
  O        16.9574670017        3.9095560761       10.9394379643
  O        13.3364356062        6.4097484465        7.4488284293
  O        18.0469339705        6.4055004014       15.5966736691
  O        16.8283104938        6.4344322989        4.1825617688
  O        12.1148006025        6.4080472309       12.3307439027
  O        12.2265261723        6.4329347828        2.7984205204
  O        16.9577353057        6.4091289866       10.9393110747
  O        10.2224814393        2.9689928723        4.8704297926
  O        14.9347622580        2.9707281394       13.0293472947
  O        16.1581409832        2.9691196512        8.1438732875
  O        11.4512980422        2.9953240270       16.2923060272
  O        11.3143725866        2.9695192504        9.5322437131
  O        16.0321882638        2.9961942214       17.6796669778
  O        12.4651362684        1.7200565858        4.7497456654
  O        17.1696706319        1.7200559816       12.9076418977
  O        11.0436304995        1.7200442749        6.8907640696
  O        15.7538385670        1.7200078380       15.0448603779
  P        11.0242603936        1.7197386973        5.3281361745
  P        15.7345943838        1.7196972710       13.4955587646
 Ca        17.6262246420        1.7199697799        4.0914808769
 Ca        12.9023781161        1.7198272650       12.2710737484
  O        14.9312387304        1.7200614852        6.2697438494
  O        10.2189018564        1.7200554984       14.4284434625
  O        17.4991522537        1.7200296717        6.4338585582
  O        12.7912943021        1.7200698795       14.5819018485
  P        16.1588863054        1.7196747507        7.2227560523
  P        11.4487351057        1.7197408254       15.4238251239
 Ca        11.7980993822        1.7199929832        2.1429122334
 Ca        16.5068764966        1.7198343513       10.2920623455
  O        10.3022245297        1.7200672726       11.5289271179
  O        15.0198856301        1.7200918333       19.6874754908
  O         9.1599350013        1.7200261720        9.2359007883
  O        13.8875489499        1.7200527741       17.3561714409
  P        10.5177043713        1.7196767308        9.9955823068
  P        15.1981287222        1.7196993201       18.2154291074
 Ca        12.9971964793        1.7199326820        8.1568821066
 Ca        17.7090053961        1.7199139371       16.3384907986
  O        11.1015772591        5.1589534411        7.5656695053
  O        15.8024668950        5.1589450948       15.7321224852
  O        12.5134007816        5.1589902473        5.4288997742
  O        17.2250584771        5.1589724374       13.5849050712
  P        12.5377190468        5.1593018781        6.9806836973
  P        17.2529647537        5.1592689921       15.1466987147
 Ca        15.3698439028        5.1591828593        8.2046887068
 Ca        10.6405602321        5.1589952003       16.3726546996
  O        18.0544134333        5.1589648898        6.0466008242
  O        13.3409708578        5.1589611675       14.2086586522
  O        15.4835900899        5.1589734887        5.8943381006
  O        10.7737885873        5.1589638579       14.0405909640
  P        16.8223423429        5.1592528947        5.0535799940
  P        12.1110163366        5.1593138936       13.2518982582
 Ca        11.7648765849        5.1591461706       10.1837286628
 Ca        16.4872808601        5.1590411147       18.3321924139
  O        13.2513947310        5.1589521916        0.7870461009
  O        17.9702268305        5.1589527066        8.9457743809
  O        14.3810829952        5.1590084474        3.1206651072
  O         0.2637463496        5.1589585274       11.2406992284
  P        13.0771452050        5.1591965521        2.2597337194
  P        17.7544883767        5.1593101990       10.4792460409
 Ca        10.5670654408        5.1590007927        4.1364823035
 Ca        15.2758096086        5.1591556813       12.3189953183
 Ca        14.1339209050       -0.0261296909        4.7817751500
 Ca         9.4251886042        0.0097839845       12.9640330903
 Ca         9.4220070008        3.4487848349        7.5125920345
 Ca        14.1401080269        3.4065177165       15.6888272264
 Ca         9.4219905846        6.8692700876        7.5126092480
 Ca        14.1401387813        6.9116588491       15.6888241209
 Ca        14.1339339873        3.4660068997        4.7817310111
 Ca         9.4251754484        3.4301154054       12.9640228428
  O        14.1369586367        1.0676917656       10.2393804569
  O         9.4162649675        1.1174658735       18.3822916626
  H        14.1351788352        0.2778747309       10.2380623086
  H         9.4361513792        0.3202456338       18.4241565304
  O        14.1355458352        4.5057194845       10.2399450261
  O         9.4079267507        4.5231234409       18.3849463648
  H        14.1362645063        3.7253301039       10.2379280308
  H         9.4406344865        3.7262771087       18.4204266087
  O        14.1355559910       12.6866218744       10.2415974390
  O         9.4076666133       12.6743152487       18.3853038649
  H        14.1365472229       13.4800886113       10.2368501068
  H         9.4407333880       13.4709734493       18.4203495829
  O        14.1362834101        2.3773445280       10.2418147251
  O         9.4156422506        2.3219949345       18.3797478850
  H        14.1358549596        3.1535400331       10.2366681314
  H         9.4364590419        3.1193520660       18.4250728507
  O         0.7986724550        7.3493138670        4.8706253423
  O         5.5110597708        7.3476929058       13.0294659655
  O         6.7342483772        7.3492014118        8.1434942402
  O         2.0273579387        7.3229812301       16.2920801163
  O         1.8900850947        7.3488503433        9.5323557595
  O         6.6079533601        7.3221270504       17.6797903380
  O         3.9126326857       10.7879119976        7.4490371931
  O         8.6231331692       10.7921979843       15.5968662188
  O         7.4043779658       10.7632511182        4.1823194425
  O         2.6909602879       10.7896176664       12.3303165678
  O         2.8022822466       10.7648387573        2.7985340120
  O         7.5334072984       10.7885092480       10.9394336727
  O         3.9124050830       13.2886872830        7.4487847417
  O         8.6229475525       13.2845136951       15.5966760514
  O         7.4043231686       13.3133968541        4.1825598198
  O         2.6906937881       13.2870987466       12.3307651912
  O         2.8025317818       13.3118923001        2.7984207279
  O         7.5338019885       13.2881177437       10.9393522253
  O         0.7984968016        9.8480080100        4.8704587457
  O         5.5107494407        9.8496926472       13.0292852822
  O         6.7340790575        9.8481046870        8.1439485550
  O         2.0273035610        9.8742645530       16.2923154621
  O         1.8904450310        9.8485027960        9.5322589824
  O         6.6082273620        9.8751266315       17.6796578130
  O         3.0411455411        8.5990612076        4.7497397674
  O         7.7456456695        8.5990437396       12.9076728184
  O         1.6196562077        8.5990378890        6.8907732154
  O         6.3298293686        8.5989590353       15.0448662418
  P         1.6002566127        8.5987166722        5.3281307894
  P         6.3105792916        8.5986733665       13.4955105946
 Ca         8.2022439806        8.5989416507        4.0915255247
 Ca         3.4783902491        8.5987683704       12.2710322400
  O         5.5072329935        8.5990624566        6.2697396798
  O         0.7949200906        8.5990370043       14.4284536556
  O         8.0751460984        8.5990669713        6.4338452660
  O         3.3672595805        8.5990310138       14.5818974328
  P         6.7348872323        8.5986009553        7.2227448491
  P         2.0247251128        8.5987722257       15.4238932024
 Ca         2.3740778838        8.5989613471        2.1428963780
 Ca         7.0828523803        8.5987256051       10.2920127485
  O         0.8782317117        8.5990682678       11.5289245581
  O         5.5958956456        8.5991124686       19.6875350913
  O        18.5839394099        8.5990499349        9.2359318342
  O         4.4635901928        8.5989841012       17.3561725760
  P         1.0937141417        8.5986302187        9.9955690454
  P         5.7740980310        8.5987560793       18.2153465978
 Ca         3.5731377107        8.5986974382        8.1567964072
 Ca         8.2849515549        8.5989448978       16.3384187077
  O         1.6775911965       12.0379246691        7.5656539516
  O         6.3784831009       12.0379335313       15.7321144933
  O         3.0894174123       12.0379409751        5.4288983577
  O         7.8010986953       12.0379649274       13.5848996687
  P         3.1137482644       12.0383984095        6.9807369124
  P         7.8289423930       12.0382968102       15.1466660472
 Ca         5.9457878831       12.0383214227        8.2048038789
 Ca         1.2165947225       12.0380907193       16.3726826142
  O         8.6304182651       12.0379400328        6.0466069693
  O         3.9169994943       12.0379241933       14.2086667400
  O         6.0596297158       12.0379621845        5.8942893769
  O         1.3497939386       12.0379123208       14.0405804667
  P         7.3983176285       12.0383026186        5.0535975192
  P         2.6870067101       12.0384424042       13.2518983992
 Ca         2.3410003244       12.0382956551       10.1837759711
 Ca         7.0631647681       12.0381174345       18.3321236091
  O         3.8273962885       12.0379356028        0.7870544092
  O         8.5462379460       12.0379166818        8.9457578736
  O         4.9570817192       12.0379703439        3.1206616878
  O         9.6877636039       12.0379091995       11.2406966094
  P         3.6531346182       12.0382507953        2.2597261033
  P         8.3304897713       12.0384294005       10.4792421325
 Ca         1.1430641440       12.0380352080        4.1364982521
 Ca         5.8518307888       12.0382561256       12.3190357011
 Ca         4.7099114185        6.8528377363        4.7817675896
 Ca         0.0011743479        6.8887652746       12.9640346296
 Ca        -0.0019932640       10.3278008747        7.5125642792
 Ca         4.7160702578       10.2855782277       15.6888780462
 Ca        -0.0020002263       13.7482996521        7.5125969366
 Ca         4.7160968336       13.7905053847       15.6888223854
 Ca         4.7099313782       10.3450822316        4.7817524756
 Ca         0.0011604563       10.3091662528       12.9640400865
  O         4.7126371591        7.9500104422       10.2388816022
  O        -0.0077895494        7.9964734329       18.3820855664
  H         4.7112786477        7.1531734615       10.2384788884
  H         0.0121935266        7.1993093609       18.4242256945
  O         4.7098606077       11.3813526957       10.2402698663
  O        -0.0163535863       11.4021191328       18.3850282887
  H         4.7132723743       10.6084590311       10.2377753714
  H         0.0166304068       10.6053638681       18.4204456990
  O         4.7097960928        5.8057097435       10.2418973562
  O        -0.0167444455        5.7954406512       18.3855175524
  H         4.7133086859        6.6045124956       10.2365645442
  H         0.0168436882        6.5920267372       18.4202526410
  O         4.7130777460        9.2581103503       10.2421930624
  O        -0.0084335244        9.2010239236       18.3798706759
  H         4.7111260503       10.0290136106       10.2366303722
  H         0.0125111976        9.9983095861       18.4250447652
  O        10.2226638430        7.3493339491        4.8705722127
  O        14.9350297308        7.3476634441       13.0294666727
  O        16.1582032800        7.3491810630        8.1435165835
  O        11.4513507726        7.3229921374       16.2921139465
  O        11.3140957431        7.3488294545        9.5323619022
  O        16.0319375493        7.3221205608       17.6797464199
  O        13.3366335149       10.7879521469        7.4490266718
  O        18.0471040578       10.7922031401       15.5968316930
  O        16.8283450786       10.7632516399        4.1823279970
  O        12.1149982539       10.7897012444       12.3303334121
  O        12.2262694044       10.7647531052        2.7985173883
  O        16.9574515391       10.7885318175       10.9394140144
  O        13.3363986056       13.2886784917        7.4488183238
  O        18.0469357767       13.2844897531       15.5966797939
  O        16.8283371267       13.3133971653        4.1825620564
  O        12.1147511492       13.2870814165       12.3307311384
  O        12.2265387931       13.3118044367        2.7984239257
  O        16.9577377425       13.2881372819       10.9393236810
  O        10.2224751160        9.8479893034        4.8704019835
  O        14.9347787581        9.8496658082       13.0292976160
  O        16.1581418949        9.8480957898        8.1438889691
  O        11.4512952972        9.8742951073       16.2923587097
  O        11.3144108704        9.8484942327        9.5322669278
  O        16.0321720240        9.8751735637       17.6796258685
  O        12.4651882807        8.5990639867        4.7496946804
  O        17.1696396320        8.5990542163       12.9076654157
  O        11.0436377315        8.5990446908        6.8907423683
  O        15.7538199882        8.5990184635       15.0448415515
  P        11.0242464152        8.5987034253        5.3281757774
  P        15.7345776813        8.5986737642       13.4955196343
 Ca        17.6263179867        8.5989324680        4.0914490795
 Ca        12.9024557672        8.5988279195       12.2710243714
  O        14.9312289901        8.5990577920        6.2696874023
  O        10.2189254059        8.5990466335       14.4284735837
  O        17.4991394937        8.5990667070        6.4338707097
  O        12.7912050868        8.5990475740       14.5819221527
  P        16.1589141909        8.5986702045        7.2227840118
  P        11.4487580264        8.5987292604       15.4238942380
 Ca        11.7981016087        8.5989561512        2.1429295963
 Ca        16.5068160332        8.5988930651       10.2920525781
  O        10.3022318893        8.5990674290       11.5289406615
  O        15.0198924431        8.5990740564       19.6874762944
  O         9.1599234407        8.5990662136        9.2359214902
  O        13.8875517696        8.5990191450       17.3561392135
  P        10.5177308784        8.5986528294        9.9955769383
  P        15.1981457031        8.5987326599       18.2154356437
 Ca        12.9972076329        8.5987842960        8.1569322659
 Ca        17.7089898087        8.5989492134       16.3385058938
  O        11.1015986473       12.0379354128        7.5656550680
  O        15.8024611826       12.0379303700       15.7321250119
  O        12.5134185386       12.0379459703        5.4289052714
  O        17.2250250323       12.0379932953       13.5848965654
  P        12.5377546355       12.0383485090        6.9807360652
  P        17.2529917727       12.0382933717       15.1467075906
 Ca        15.3697949339       12.0382219953        8.2047346590
 Ca        10.6405911386       12.0381417299       16.3726563540
  O        18.0544140826       12.0379449755        6.0466107855
  O        13.3409756348       12.0379300620       14.2086142937
  O        15.4836342051       12.0379481583        5.8942924229
  O        10.7738042446       12.0379197041       14.0405789921
  P        16.8223274682       12.0382979320        5.0535891530
  P        12.1110243341       12.0383875059       13.2519051604
 Ca        11.7648930299       12.0381904407       10.1837313836
 Ca        16.4872327866       12.0380468444       18.3321745946
  O        13.2513940008       12.0378955469        0.7870505937
  O        17.9702276563       12.0379231460        8.9457667404
  O        14.3810731284       12.0379183148        3.1206575690
  O         0.2637454450       12.0379284090       11.2406965734
  P        13.0771435064       12.0383650679        2.2597331383
  P        17.7544994969       12.0383579579       10.4792504483
 Ca        10.5670622793       12.0381064696        4.1365120586
 Ca        15.2758051004       12.0381246665       12.3189874925
 Ca        14.1339108560        6.8527977393        4.7818165041
 Ca         9.4251807869        6.8887649621       12.9640133052
 Ca         9.4220078192       10.3278058943        7.5125819678
 Ca        14.1401062581       10.2854991238       15.6888844367
 Ca         9.4219960227       13.7483126086        7.5125815153
 Ca        14.1401216860       13.7905691626       15.6888414410
 Ca        14.1339348150       10.3451312027        4.7818003479
 Ca         9.4251546728       10.3091639040       12.9640331677
  O        14.1353569195        7.9464593695       10.2400875023
  O         9.4154730357        7.9964341158       18.3799703854
  H        14.1360151658        7.1566972272       10.2378660911
  H         9.4364808069        7.1993494506       18.4249300330
  O        14.1349253940       11.3845669275       10.2414201101
  O         9.4072718442       11.4021201316       18.3854689315
  H        14.1368655568       10.6046228687       10.2371708823
  H         9.4407632492       10.6053127528       18.4202270841
  O        14.1351409824        5.8072881986       10.2429043813
  O         9.4069743386        5.7955123796       18.3861628579
  H        14.1366004781        6.6009799030       10.2363645219
  H         9.4408365667        6.5921101825       18.4198451349
  O        14.1379661597        9.2563201003       10.2407492611
  O         9.4163971192        9.2009714703       18.3822464737
  H        14.1348578835       10.0327333468       10.2373662112
  H         9.4360884039        9.9984285926       18.4241851020
  O         8.1884953967        6.7664618461       25.5023485455
  C         9.2757497693        7.2960339041       25.4706512811
  O        10.3626472315        7.8250719952       25.4324879668
     387
 i =        5, E =     -6913.7256670711
  O         0.7949634127        0.4690547558        4.8682295383
  O         5.5081979862        0.4668466194       13.0293876884
  O         6.7364043860        0.4683362496        8.1439635780
  O         2.0327981512        0.4313025162       16.2892611862
  O         1.8902861213        0.4677228128        9.5291900693
  O         6.6044190494        0.4364911699       17.6778181825
  O         3.9154479845        3.9072972940        7.4512285589
  O         8.6262313502        3.9113161492       15.5947190528
  O         7.4030795155        3.8735485351        4.1844911010
  O         2.6894793350        3.9091669981       12.3284906629
  O         2.7992958165        3.8834170134        2.8010859282
  O         7.5327824567        3.9073240469       10.9405693814
  O         3.9150897183        6.4112000993        7.4507198908
  O         8.6260394686        6.4073600896       15.5946048315
  O         7.4030567216        6.4451166162        4.1847134240
  O         2.6891178704        6.4094223946       12.3292154162
  O         2.7996052211        6.4351665734        2.8010125360
  O         7.5332805460        6.4112276915       10.9404578887
  O         0.7947340333        2.9702281971        4.8679345579
  O         5.5078797075        2.9725962378       13.0289305996
  O         6.7361501508        2.9711317869        8.1445585392
  O         2.0327818466        3.0080223855       16.2894700694
  O         1.8908911868        2.9717443252        9.5291222514
  O         6.6045966393        3.0028591091       17.6777093678
  O         3.0476326430        1.7200834332        4.7492155677
  O         7.7483258504        1.7201126505       12.9058526945
  O         1.6212527434        1.7200596445        6.8923984504
  O         6.3307521280        1.7201352039       15.0488888397
  P         1.6015727216        1.7197559701        5.3285935738
  P         6.3089283211        1.7195070524       13.4906600757
 Ca         8.2058234029        1.7199749720        4.0934827327
 Ca         3.4774059851        1.7192850708       12.2762628481
  O         5.5046505950        1.7201175478        6.2641865550
  O         0.7962353029        1.7200850342       14.4299674765
  O         8.0806311471        1.7200874241        6.4312406361
  O         3.3703558633        1.7200749829       14.5811117434
  P         6.7346620642        1.7195369664        7.2231143819
  P         2.0258830362        1.7198016898       15.4294896926
 Ca         2.3822893884        1.7199816002        2.1484662944
 Ca         7.0855376300        1.7193344926       10.2907272169
  O         0.8766657426        1.7201314796       11.5330064603
  O         5.5938564623        1.7200752910       19.7002009923
  O        18.5804790512        1.7201225698        9.2357102144
  O         4.4679468284        1.7200828546       17.3436916329
  P         1.0952935024        1.7194817239        9.9947244732
  P         5.7730866337        1.7197730084       18.2186317441
 Ca         3.5708055305        1.7193968256        8.1544684235
 Ca         8.2818154962        1.7199418966       16.3447645350
  O         1.6743977343        5.1589019421        7.5665404870
  O         6.3708966171        5.1589154235       15.7354774248
  O         3.0858353905        5.1588977786        5.4249828958
  O         7.7974064798        5.1590167196       13.5831100565
  P         3.1151597064        5.1595056753        6.9845115647
  P         7.8274489554        5.1592525162       15.1453388063
 Ca         5.9470580951        5.1596881185        8.1988914203
 Ca         1.2085657575        5.1590454430       16.3668825845
  O         8.6298057830        5.1589501848        6.0462377994
  O         3.9191735150        5.1589077675       14.2152536491
  O         6.0573830361        5.1589491925        5.8961727325
  O         1.3442894493        5.1588846447       14.0421632970
  P         7.3977247504        5.1592495415        5.0494937107
  P         2.6870811567        5.1595042821       13.2502294303
 Ca         2.3377669513        5.1597235298       10.1844717885
 Ca         7.0642244101        5.1589618463       18.3255260203
  O         3.8287032183        5.1588687688        0.7738040077
  O         8.5481203669        5.1588966205        8.9423117037
  O         4.9519345796        5.1589302280        3.1347465730
  O         9.6911349293        5.1588986934       11.2412943361
  P         3.6538230825        5.1592980261        2.2568617727
  P         8.3290487847        5.1594584841       10.4789253656
 Ca         1.1500892511        5.1590947074        4.1322289987
 Ca         5.8547407367        5.1596286134       12.3210665527
 Ca         4.7082135763       -0.0401770201        4.7760640648
 Ca         0.0018228898        0.0103267592       12.9661157784
 Ca        -0.0029787750        3.4492292824        7.5108863454
 Ca         4.7189218395        3.3883787226       15.6910453600
 Ca        -0.0029751011        6.8688933620        7.5109149838
 Ca         4.7189434128        6.9298256064       15.6910250591
 Ca         4.7082351887        3.4800268429        4.7759917142
 Ca         0.0017672158        3.4295327577       12.9661402358
  O         4.7114969831        1.0699318446       10.2419684951
  O        -0.0207046397        1.1220237308       18.3552129960
  H         4.7119132870        0.2700746540       10.2377056457
  H         0.0250977608        0.3290180406       18.4506019453
  O         4.7133198177        4.5015222078       10.2436805243
  O        -0.0324966868        4.5120252683       18.3676946793
  H         4.7117523917        3.7308862780       10.2354635701
  H         0.0352215827        3.7140211548       18.4395751651
  O         4.7133288004       12.6804397737       10.2456986877
  O        -0.0329573121       12.6854084338       18.3687541763
  H         4.7117074187       13.4864672506       10.2337936953
  H         0.0350803930       13.4835618173       18.4388897930
  O         4.7141311768        2.3849275912       10.2427717181
  O        -0.0161189652        2.3172340565       18.3595640970
  H         4.7106642720        3.1493396958       10.2366524814
  H         0.0226126848        3.1106941188       18.4487299286
  O        10.2189931953        0.4690288483        4.8682954381
  O        14.9321566929        0.4667677469       13.0292406025
  O        16.1603556664        0.4682687956        8.1440455301
  O        11.4567694925        0.4312839659       16.2892396302
  O        11.3144218000        0.4676319779        9.5292492406
  O        16.0283277787        0.4364888616       17.6777975877
  O        13.3394905857        3.9073103999        7.4512348477
  O        18.0502361152        3.9113392758       15.5947187630
  O        16.8270949058        3.8735672934        4.1845084488
  O        12.1134431216        3.9091685545       12.3284201271
  O        12.2232960534        3.8835132672        2.8011109096
  O        16.9566571346        3.9073429874       10.9405713202
  O        13.3392200674        6.4112142465        7.4509046597
  O        18.0500326978        6.4073703715       15.5945008053
  O        16.8270106649        6.4451042726        4.1847392079
  O        12.1131584663        6.4094409013       12.3290715530
  O        12.2235974690        6.4352557329        2.8009903159
  O        16.9571270173        6.4112179103       10.9404388238
  O        10.2187722365        2.9702393727        4.8679927585
  O        14.9318366712        2.9726856171       13.0289723401
  O        16.1601272468        2.9711618509        8.1446112140
  O        11.4567618500        3.0079946435       16.2894506059
  O        11.3148657405        2.9717992409        9.5290940132
  O        16.0286348859        3.0027930647       17.6776979053
  O        12.4716062836        1.7200779384        4.7492690907
  O        17.1722640327        1.7200811245       12.9058332803
  O        11.0452785124        1.7200544204        6.8924624316
  O        15.7547347091        1.7200145487       15.0488043548
  P        11.0255374182        1.7197773482        5.3285415250
  P        15.7330550422        1.7196294706       13.4907705171
 Ca        17.6297534546        1.7199710092        4.0935453196
 Ca        12.9014298323        1.7195417495       12.2762692040
  O        14.9286400795        1.7201016365        6.2642611991
  O        10.2202416132        1.7200650486       14.4299587068
  O        17.5045692385        1.7200640674        6.4312548533
  O        12.7943700303        1.7200708631       14.5810775663
  P        16.1586894654        1.7195743475        7.2230086531
  P        11.4498664112        1.7198493040       15.4294697230
 Ca        11.8062863897        1.7200023902        2.1484489445
 Ca        16.5095932992        1.7194941169       10.2907719395
  O        10.3007126782        1.7201043644       11.5329867785
  O        15.0178413153        1.7201267140       19.7001705563
  O         9.1565773892        1.7200553229        9.2357339314
  O        13.8918952973        1.7200456900       17.3436671398
  P        10.5191376194        1.7195823825        9.9947572665
  P        15.1971766637        1.7197659371       18.2186786908
 Ca        12.9948527765        1.7196608258        8.1545474882
 Ca        17.7058203062        1.7199048061       16.3447919333
  O        11.0984776218        5.1589130831        7.5665733900
  O        15.7949201879        5.1589193550       15.7353987557
  O        12.5098326338        5.1589507690        5.4250498964
  O        17.2214380973        5.1589622190       13.5829874267
  P        12.5390127990        5.1594238378        6.9843520536
  P        17.2514545361        5.1592483529       15.1454335700
 Ca        15.3713372243        5.1594980515        8.1983090064
 Ca        10.6326697763        5.1589948787       16.3668294556
  O        18.0537656574        5.1589453347        6.0462339658
  O        13.3431562995        5.1589205513       14.2152139311
  O        15.4813330107        5.1589601877        5.8962693871
  O        10.7683206851        5.1589087740       14.0421291114
  P        16.8218071732        5.1592535270        5.0494497159
  P        12.1110424938        5.1594403778       13.2503706148
 Ca        11.7611439008        5.1594834246       10.1844507467
 Ca        16.4882944256        5.1590662554       18.3255322655
  O        13.2526973147        5.1589245606        0.7738051845
  O        17.9720390553        5.1589065197        8.9423259853
  O        14.3759425896        5.1590013368        3.1347711037
  O         0.2669857702        5.1589100584       11.2412777005
  P        13.0778128939        5.1592007513        2.2568540306
  P        17.7533124649        5.1594379128       10.4789163916
 Ca        10.5740685071        5.1590039351        4.1322151681
 Ca        15.2790357562        5.1594978287       12.3215619645
 Ca        14.1322206276       -0.0401040601        4.7759543438
 Ca         9.4257243520        0.0103415040       12.9660956920
 Ca         9.4209520441        3.4492229199        7.5108659340
 Ca        14.1429236398        3.3884987598       15.6911143696
 Ca         9.4209296695        6.8688785163        7.5109032345
 Ca        14.1429648959        6.9297367734       15.6910960556
 Ca        14.1322362769        3.4799140533        4.7758850561
 Ca         9.4257045792        3.4295340127       12.9661085119
  O        14.1374379377        1.0682184411       10.2404687090
  O         9.4063037789        1.1222685947       18.3603117249
  H        14.1340327100        0.2647223166       10.2381510386
  H         9.4473849591        0.3287293897       18.4483671287
  O        14.1353034470        4.5031411329       10.2413964137
  O         9.3921822198        4.5120367869       18.3674273444
  H        14.1367065416        3.7373578486       10.2377006797
  H         9.4587808791        3.7139638699       18.4393487183
  O        14.1354397325       12.6740288156       10.2441301552
  O         9.3916198044       12.6854080034       18.3681778527
  H        14.1374548809       13.4921409522       10.2347485657
  H         9.4591233077       13.4834452531       18.4393332107
  O        14.1363387460        2.3916079194       10.2448313567
  O         9.4050872751        2.3174559230       18.3547246995
  H        14.1355665476        3.1430603960       10.2344846753
  H         9.4481254514        3.1104109076       18.4507425114
  O         0.7949462479        7.3480571347        4.8682358801
  O         5.5082224895        7.3458948609       13.0292931203
  O         6.7364473885        7.3473120043        8.1439383354
  O         2.0328177063        7.3103011314       16.2892355568
  O         1.8902904369        7.3467270317        9.5291908224
  O         6.6043744203        7.3155076478       17.6778709985
  O         3.9154218469       10.7863344729        7.4511847212
  O         8.6262427505       10.7903457799       15.5947597016
  O         7.4031122785       10.7525447190        4.1844760563
  O         2.6894192077       10.7881733787       12.3285243929
  O         2.7993071971       10.7624936051        2.8010978336
  O         7.5327161947       10.7863348057       10.9405503922
  O         3.9151254123       13.2901769112        7.4507539456
  O         8.6260604679       13.2863923580       15.5945360000
  O         7.4030434842       13.3241076537        4.1846978211
  O         2.6889840685       13.2885059391       12.3292025561
  O         2.7995983519       13.3142425900        2.8009867205
  O         7.5333734310       13.2902331412       10.9405080940
  O         0.7947764300        9.8492738131        4.8680328258
  O         5.5078573188        9.8516193633       13.0289544398
  O         6.7360705780        9.8500766536        8.1446699033
  O         2.0327802877        9.8870234304       16.2895037852
  O         1.8908935003        9.8507289500        9.5291315469
  O         6.6046858946        9.8818150543       17.6777068530
  O         3.0476021139        8.5990830403        4.7492463545
  O         7.7483119098        8.5990850184       12.9058811630
  O         1.6212688218        8.5990457017        6.8924209194
  O         6.3307442014        8.5990020426       15.0488750525
  P         1.6015812444        8.5987543211        5.3285867127
  P         6.3089341974        8.5985617065       13.4906616108
 Ca         8.2057685270        8.5989270226        4.0936140301
 Ca         3.4774624736        8.5983924629       12.2762020983
  O         5.5046501316        8.5991039690        6.2642119658
  O         0.7962421456        8.5990618121       14.4299756569
  O         8.0806214227        8.5991364517        6.4312058737
  O         3.3703417057        8.5990513189       14.5811070134
  P         6.7346453851        8.5984770424        7.2231060344
  P         2.0258657530        8.5987584086       15.4294915475
 Ca         2.3822535037        8.5989563418        2.1484326921
 Ca         7.0855150418        8.5983266698       10.2907201836
  O         0.8766671441        8.5991156742       11.5330050459
  O         5.5939082225        8.5991717311       19.7002557863
  O        18.5804726545        8.5991046461        9.2357470980
  O         4.4679780265        8.5990072431       17.3437177722
  P         1.0953000638        8.5985067903        9.9947171427
  P         5.7730818882        8.5987311694       18.2185606158
 Ca         3.5708156909        8.5982613792        8.1544880902
 Ca         8.2817416013        8.5989107307       16.3446537332
  O         1.6744217556       12.0378911277        7.5665256975
  O         6.3709076227       12.0379107643       15.7354539910
  O         3.0858449316       12.0378985634        5.4249870220
  O         7.7975329570       12.0379597042       13.5830861913
  P         3.1151810876       12.0384664376        6.9845416533
  P         7.8274648375       12.0382355299       15.1452962249
 Ca         5.9470070532       12.0387131907        8.1988346747
 Ca         1.2086559606       12.0380818248       16.3668636372
  O         8.6298036610       12.0379239903        6.0462407881
  O         3.9191877073       12.0378904724       14.2153156118
  O         6.0574234547       12.0379567955        5.8961338368
  O         1.3442737307       12.0378593485       14.0421703562
  P         7.3977111703       12.0382412811        5.0495051464
  P         2.6870758835       12.0384852498       13.2501642335
 Ca         2.3377961258       12.0386752848       10.1844808384
 Ca         7.0641848145       12.0381304848       18.3254025651
  O         3.8287032489       12.0379102617        0.7738117383
  O         8.5481351552       12.0378694825        8.9422968156
  O         4.9519344934       12.0379676409        3.1347454592
  O         9.6911650986       12.0378464150       11.2412903187
  P         3.6538063078       12.0382110841        2.2568582077
  P         8.3290607919       12.0385297856       10.4789147995
 Ca         1.1500915857       12.0380275569        4.1322625172
 Ca         5.8547896188       12.0386682862       12.3211676947
 Ca         4.7081971744        6.8388593960        4.7760047268
 Ca         0.0017984426        6.8893170158       12.9661204773
 Ca        -0.0029618115       10.3282230489        7.5108282925
 Ca         4.7188748459       10.2674842592       15.6910774078
 Ca        -0.0029742982       13.7479073667        7.5108822815
 Ca         4.7189154986       13.8086525693       15.6910049792
 Ca         4.7082219237       10.3590166698        4.7759703015
 Ca         0.0017780009       10.3085651196       12.9661382353
  O         4.7127755410        7.9490179218       10.2395679495
  O        -0.0177666763        8.0012795749       18.3598553355
  H         4.7100035007        7.1489884731       10.2391830117
  H         0.0234459498        7.2078139086       18.4485954242
  O         4.7082175965       11.3803911115       10.2419789498
  O        -0.0323756484       11.3910218496       18.3676870335
  H         4.7152869461       10.6104115850       10.2373049313
  H         0.0348608159       10.5929959126       18.4393838967
  O         4.7085355118        5.8013365274       10.2445325983
  O        -0.0331525708        5.8064146541       18.3686750208
  H         4.7152913157        6.6075215351       10.2340476391
  H         0.0354390157        6.6045221895       18.4391011485
  O         4.7138041402        9.2638182445       10.2455964437
  O        -0.0190424714        9.1964588782       18.3549808538
  H         4.7097008178       10.0288054433       10.2342722753
  H         0.0242491925        9.9894781557       18.4506674470
  O        10.2189507152        7.3480909552        4.8681725479
  O        14.9321561267        7.3457964562       13.0292339109
  O        16.1603329216        7.3472247701        8.1440248582
  O        11.4568055709        7.3103153736       16.2892657797
  O        11.3143866810        7.3466385767        9.5291925986
  O        16.0283694630        7.3155296834       17.6777686445
  O        13.3394948488       10.7863862685        7.4512851494
  O        18.0501925858       10.7903563912       15.5946847704
  O        16.8270508613       10.7525525797        4.1845032975
  O        12.1135242010       10.7882582536       12.3284476797
  O        12.2232963990       10.7624104419        2.8010764294
  O        16.9566534734       10.7863525633       10.9405364245
  O        13.3391750824       13.2901575310        7.4508968528
  O        18.0500255709       13.2863560873       15.5945097497
  O        16.8270448597       13.3240938772        4.1847201016
  O        12.1131376217       13.2884830111       12.3290485799
  O        12.2235932379       13.3141412454        2.8010093774
  O        16.9571297005       13.2902542971       10.9404631294
  O        10.2187655637        9.8492486298        4.8679662299
  O        14.9318501400        9.8516538984       13.0289054950
  O        16.1601369012        9.8501380726        8.1446217607
  O        11.4567477610        9.8870563676       16.2895498259
  O        11.3149305573        9.8507875242        9.5291367131
  O        16.0285954563        9.8818549490       17.6776367832
  O        12.4716566369        8.5990887521        4.7492223146
  O        17.1722452844        8.5990941490       12.9058541089
  O        11.0452777127        8.5990576732        6.8924377068
  O        15.7547136034        8.5990789422       15.0487789389
  P        11.0255517504        8.5987345979        5.3285657983
  P        15.7330471752        8.5985588333       13.4907581158
 Ca        17.6298661652        8.5989174280        4.0934912896
 Ca        12.9015316413        8.5985058374       12.2761955858
  O        14.9286505823        8.5990928618        6.2641881717
  O        10.2202552039        8.5990794566       14.4299946177
  O        17.5045689754        8.5991257641        6.4312758828
  O        12.7942987160        8.5990749495       14.5810929357
  P        16.1586995280        8.5985678416        7.2230378764
  P        11.4498763400        8.5987035647       15.4295123838
 Ca        11.8062973936        8.5989417862        2.1484818177
 Ca        16.5094828483        8.5986009758       10.2907581551
  O        10.3007213163        8.5991164552       11.5330014352
  O        15.0178506962        8.5991144824       19.7001772559
  O         9.1565640139        8.5991253495        9.2357525424
  O        13.8919151031        8.5990535017       17.3436378021
  P        10.5191517965        8.5985253392        9.9947652468
  P        15.1971686470        8.5987149161       18.2186710323
 Ca        12.9948789641        8.5984068296        8.1546305693
 Ca        17.7058004344        8.5989364909       16.3448068731
  O        11.0985048633       12.0379053995        7.5665545470
  O        15.7948704932       12.0379120837       15.7354317086
  O        12.5098615945       12.0379086784        5.4250664263
  O        17.2213774870       12.0379948157       13.5830017942
  P        12.5390587505       12.0384223919        6.9844123498
  P        17.2515364190       12.0382392639       15.1454218959
 Ca        15.3712530573       12.0385391460        8.1983606408
 Ca        10.6326642708       12.0381371042       16.3668285264
  O        18.0537646748       12.0379295020        6.0462533273
  O        13.3431745667       12.0379023108       14.2151830707
  O        15.4813820863       12.0379385561        5.8962246756
  O        10.7683486671       12.0378742739       14.0421245971
  P        16.8218033011       12.0382388428        5.0494480997
  P        12.1110321681       12.0384294158       13.2503247400
 Ca        11.7611853194       12.0385177008       10.1844428238
 Ca        16.4882789814       12.0380470366       18.3255199344
  O        13.2526958625       12.0378556584        0.7738113885
  O        17.9720439348       12.0378811545        8.9423263934
  O        14.3759286167       12.0378978650        3.1347619735
  O         0.2669838706       12.0378842107       11.2412767708
  P        13.0778086010       12.0383075066        2.2568529062
  P        17.7533133663       12.0384388143       10.4789140542
 Ca        10.5740679690       12.0381166325        4.1322699262
 Ca        15.2790158485       12.0384305028       12.3215200081
 Ca        14.1322005011        6.8388337085        4.7760101324
 Ca         9.4257241410        6.8893133098       12.9660819704
 Ca         9.4209590449       10.3282277928        7.5108437177
 Ca        14.1429422128       10.2673756183       15.6911635030
 Ca         9.4209391600       13.7479282535        7.5108563485
 Ca        14.1429642175       13.8087214335       15.6910956335
 Ca        14.1322372037       10.3590547385        4.7759806672
 Ca         9.4256909891       10.3085566995       12.9661154575
  O        14.1346983333        7.9470014383       10.2416967406
  O         9.4047513187        8.0010331030       18.3551937786
  H        14.1359897411        7.1433714273       10.2377591299
  H         9.4481946383        7.2080388572       18.4505909268
  O        14.1342075785       11.3821752664       10.2440788875
  O         9.3908855071       11.3910146458       18.3685910063
  H        14.1382720300       10.6164497772       10.2356223164
  H         9.4593204279       10.5930237859       18.4390452690
  O        14.1347594557        5.7949118977       10.2463857613
  O         9.3903028742        5.8064013068       18.3700534908
  H        14.1373663372        6.6127326402       10.2335541313
  H         9.4594570308        6.6046671949       18.4380183319
  O        14.1393529472        9.2705922446       10.2429522479
  O         9.4065995965        9.1963042352       18.3601684694
  H        14.1330387219       10.0222529304       10.2363192609
  H         9.4472162769        9.9897668127       18.4484366703
  O         8.2720222262        6.8068971629       25.4977399260
  C         9.2754703117        7.2959682464       25.4701748590
  O        10.2789630750        7.7840576985       25.4336118147
     387
 i =        6, E =     -6913.8842213636
  O         0.7870790103        0.4673953297        4.8623887683
  O         5.5023670451        0.4639825782       13.0304599534
  O         6.7419643541        0.4651132889        8.1437292201
  O         2.0463070830        0.4029826280       16.2822780028
  O         1.8895616033        0.4638352175        9.5216737733
  O         6.5939825699        0.4233084968       17.6747988122
  O         3.9212161384        3.9051365352        7.4552283895
  O         8.6328178198        3.9076539665       15.5890730454
  O         7.3995206592        3.8502178135        4.1899996096
  O         2.6855803993        3.9070224055       12.3252707628
  O         2.7937714532        3.8802525800        2.8055618175
  O         7.5323260829        3.9034234930       10.9432002336
  O         3.9206748508        6.4131268455        7.4541217530
  O         8.6326060709        6.4109861233       15.5889585252
  O         7.3994835312        6.4683399371        4.1902521052
  O         2.6847198961        6.4114217609       12.3266934160
  O         2.7941702711        6.4382668207        2.8055257987
  O         7.5332470357        6.4149303510       10.9431239257
  O         0.7868328939        2.9718831478        4.8619238830
  O         5.5019403200        2.9755886138       13.0295436836
  O         6.7413120523        2.9745031550        8.1448277560
  O         2.0462844718        3.0362723947       16.2824405562
  O         1.8907514501        2.9757730733        9.5217365332
  O         6.5940969244        3.0160054056       17.6747154345
  O         3.0618485331        1.7201417777        4.7483223032
  O         7.7533116057        1.7201864602       12.9023205410
  O         1.6250144565        1.7200864400        6.8940048894
  O         6.3330115252        1.7202636412       15.0577896238
  P         1.6045723775        1.7198503557        5.3300037786
  P         6.3047329491        1.7193881106       13.4775667426
 Ca         8.2147409801        1.7199816796        4.0989254108
 Ca         3.4758530939        1.7183110072       12.2867402660
  O         5.4998729963        1.7202158770        6.2506737369
  O         0.8013876922        1.7201337433       14.4362612526
  O         8.0925037847        1.7201960428        6.4251300427
  O         3.3756674440        1.7200850602       14.5820913126
  P         6.7339086129        1.7194047236        7.2245706487
  P         2.0287633165        1.7200149527       15.4402167895
 Ca         2.4021281352        1.7199816065        2.1621293847
 Ca         7.0904301803        1.7183609185       10.2874400251
  O         0.8731751292        1.7202430293       11.5417106902
  O         5.5890895127        1.7201234588       19.7273616992
  O        18.5735457393        1.7202658385        9.2356670001
  O         4.4791218794        1.7201026267       17.3160081343
  P         1.0992872906        1.7192947190        9.9923439403
  P         5.7725435145        1.7199564367       18.2263102987
 Ca         3.5661422926        1.7184258726        8.1504574035
 Ca         8.2736826244        1.7199824685       16.3586977079
  O         1.6681010735        5.1587976985        7.5678504562
  O         6.3545078920        5.1588659111       15.7430748727
  O         3.0771944340        5.1587487837        5.4167919170
  O         7.7887112909        5.1590234398       13.5808701398
  P         3.1187831877        5.1597666644        6.9948385700
  P         7.8231071619        5.1591940670       15.1416017474
 Ca         5.9497020077        5.1606856336        8.1856887652
 Ca         1.1883921889        5.1590391229       16.3524022019
  O         8.6265896173        5.1589049467        6.0433322337
  O         3.9228571988        5.1588108972       14.2315637779
  O         6.0537443042        5.1589185113        5.8981133850
  O         1.3322076165        5.1587185348       14.0455267440
  P         7.3966744328        5.1592304721        5.0416697859
  P         2.6876227629        5.1597474688       13.2454542441
 Ca         2.3307706813        5.1608262810       10.1860933345
 Ca         7.0675133482        5.1589745041       18.3085593174
  O         3.8317126537        5.1587712586        0.7462520490
  O         8.5524560086        5.1587875193        8.9352556700
  O         4.9388455179        5.1588773494        3.1660944412
  O         9.6980026228        5.1587759147       11.2423982904
  P         3.6533966662        5.1592172420        2.2484446659
  P         8.3254558926        5.1596335676       10.4783554841
 Ca         1.1669564265        5.1591328115        4.1222640026
 Ca         5.8612473810        5.1605963318       12.3249631295
 Ca         4.7039537315       -0.0729705684        4.7630279378
 Ca         0.0032734301        0.0115778577       12.9705338092
 Ca        -0.0055069414        3.4501831503        7.5071201394
 Ca         4.7260281462        3.3457063733       15.6951109694
 Ca        -0.0055101051        6.8680692757        7.5071956399
 Ca         4.7260597290        6.9725865619       15.6950221156
 Ca         4.7040012040        3.5126752889        4.7629021237
 Ca         0.0031848916        3.4281921503       12.9706099416
  O         4.7104633299        1.0764890487       10.2461998505
  O        -0.0531169472        1.1306226412       18.2853565643
  H         4.7120294124        0.2674512363       10.2376427869
  H         0.0588157742        0.3522025554       18.5244100483
  O         4.7153546608        4.5208839044       10.2506027959
  O        -0.0779788740        4.4894320935       18.3187340823
  H         4.7113391603        3.7343770526       10.2304451285
  H         0.0881754571        3.6907291100       18.4921115638
  O         4.7154644900       12.6540890258       10.2541590275
  O        -0.0791148391       12.7075277443       18.3214757834
  H         4.7110610333       13.4848728439       10.2257468484
  H         0.0874805388       13.5077713235       18.4898842804
  O         4.7166566050        2.3845229955       10.2484646925
  O        -0.0409687026        2.3078584297       18.2965952373
  H         4.7081074158        3.1508911915       10.2339146542
  H         0.0515740184        3.0878787645       18.5186498511
  O        10.2111163415        0.4673474423        4.8624910801
  O        14.9263566039        0.4638030360       13.0302885320
  O        16.1659373556        0.4649524131        8.1437597207
  O        11.4702188203        0.4029399640       16.2822836782
  O        11.3136876775        0.4636537792        9.5217879705
  O        16.0177656146        0.4232455218       17.6747362419
  O        13.3453165713        3.9052259493        7.4552564305
  O        18.0568444271        3.9076695490       15.5890505601
  O        16.8235346596        3.8502557405        4.1900284171
  O        12.1095385914        3.9071064741       12.3250840040
  O        12.2177461366        3.8803357631        2.8056170139
  O        16.9559826951        3.9035312402       10.9432047588
  O        13.3449059542        6.4130024497        7.4545248604
  O        18.0566309477        6.4110143921       15.5887504224
  O        16.8234096231        6.4683217100        4.1902901512
  O        12.1088134485        6.4113186351       12.3263722421
  O        12.2181865150        6.4383274617        2.8054752054
  O        16.9569465366        6.4147901646       10.9430880307
  O        10.2108736373        2.9719202288        4.8620014530
  O        14.9259134473        2.9758689999       13.0297083089
  O        16.1653282158        2.9746897507        8.1448575851
  O        11.4702345624        3.0362317004       16.2824418054
  O        11.3145581769        2.9759715084        9.5216444833
  O        16.0182212167        3.0158997348       17.6746708235
  O        12.4858594643        1.7201339619        4.7483599888
  O        17.1772759640        1.7201412085       12.9022932920
  O        11.0490090617        1.7200821745        6.8940203000
  O        15.7569754831        1.7200322711       15.0576868255
  P        11.0284941971        1.7198643122        5.3300646915
  P        15.7288556846        1.7195110232       13.4776261746
 Ca        17.6386437427        1.7199700312        4.0990303069
 Ca        12.9002270673        1.7188305386       12.2861067461
  O        14.9238100420        1.7201997563        6.2507167638
  O        10.2253667581        1.7200915002       14.4362474959
  O        17.5164340649        1.7201652063        6.4251283640
  O        12.7996322267        1.7200749414       14.5821196591
  P        16.1579345199        1.7193674439        7.2245467200
  P        11.4528192174        1.7200979695       15.4401771349
 Ca        11.8261310739        1.7200147226        2.1621130672
 Ca        16.5138246488        1.7186381592       10.2875067579
  O        10.2971891528        1.7201970978       11.5417074827
  O        15.0129966106        1.7202174659       19.7273658451
  O         9.1495681517        1.7201295492        9.2356934773
  O        13.9030274179        1.7200336974       17.3159754969
  P        10.5232420435        1.7194042735        9.9924347584
  P        15.1966781219        1.7199151085       18.2263317364
 Ca        12.9905170494        1.7189309269        8.1511285330
 Ca        17.6977061279        1.7198734276       16.3588336214
  O        11.0922219824        5.1588184653        7.5679332464
  O        15.7785891798        5.1588557977       15.7428989233
  O        12.5011906017        5.1588478786        5.4168785529
  O        17.2127169524        5.1589426814       13.5806259167
  P        12.5425584224        5.1596725535        6.9945598064
  P        17.2470729345        5.1591874008       15.1417947986
 Ca        15.3745143232        5.1603115553        8.1841891045
 Ca        10.6126524237        5.1589855914       16.3522391158
  O        18.0505274248        5.1588991702        6.0433301585
  O        13.3468278412        5.1588199200       14.2314387756
  O        15.4776558130        5.1589280124        5.8982930612
  O        10.7562356859        5.1587615556       14.0454837545
  P        16.8208238500        5.1592357649        5.0415939451
  P        12.1115509556        5.1597176283       13.2457357891
 Ca        11.7531091019        5.1603647974       10.1860983377
 Ca        16.4916397285        5.1591332847       18.3086864609
  O        13.2556966338        5.1588519086        0.7462438294
  O        17.9763056256        5.1587924953        8.9352579783
  O        14.3628609728        5.1589801432        3.1661391479
  O         0.2737311518        5.1587893060       11.2423885791
  P        13.0773769504        5.1592188239        2.2484393863
  P        17.7499318423        5.1597026065       10.4783696663
 Ca        10.5909104688        5.1590196645        4.1222333162
 Ca        15.2861502088        5.1603761027       12.3264636948
 Ca        14.1279798890       -0.0728364140        4.7628609123
 Ca         9.4271351648        0.0116143039       12.9704740006
 Ca         9.4183985400        3.4501702847        7.5070940011
 Ca        14.1500428133        3.3459434641       15.6952483089
 Ca         9.4183646022        6.8680427287        7.5071744492
 Ca        14.1501093029        6.9724265013       15.6951971106
 Ca        14.1280076627        3.5124885077        4.7627374413
 Ca         9.4270984174        3.4281977910       12.9705369142
  O        14.1388155872        1.0686806686       10.2429508157
  O         9.3787204772        1.1319664092       18.2985649799
  H        14.1303853519        0.2567792149       10.2387731028
  H         9.4779385883        0.3509788181       18.5176530887
  O        14.1346395032        4.5295692525       10.2450588181
  O         9.3477736222        4.4895665845       18.3179911485
  H        14.1380913527        3.7463774842       10.2370717313
  H         9.5106214830        3.6904768441       18.4912249977
  O        14.1351659082       12.6341658572       10.2506393393
  O         9.3462606285       12.7078052256       18.3198372227
  H        14.1404373264       13.4943340563       10.2282435676
  H         9.5117736760       13.5073267473       18.4915211439
  O        14.1364429404        2.4003531471       10.2535213332
  O         9.3756479733        2.3089630690       18.2840206005
  H        14.1346510448        3.1444159975       10.2274419277
  H         9.4800372145        3.0865780460       18.5247402688
  O         0.7870469602        7.3463807235        4.8623910477
  O         5.5023720755        7.3430423070       13.0303063799
  O         6.7420654091        7.3440734919        8.1436343851
  O         2.0463051711        7.2820487979       16.2822250637
  O         1.8895727206        7.3428450739        9.5216755439
  O         6.5938738013        7.3023239262       17.6749378049
  O         3.9211793634       10.7841881283        7.4551003051
  O         8.6328140163       10.7867523763       15.5891443443
  O         7.3995652162       10.7292887718        4.1900241477
  O         2.6854454764       10.7861193273       12.3254170119
  O         2.7937773343       10.7593526607        2.8055855902
  O         7.5321346529       10.7824972549       10.9431438060
  O         3.9207350237       13.2921397286        7.4542447820
  O         8.6326436419       13.2900378137       15.5888401643
  O         7.3994709276       13.3473864986        4.1901970750
  O         2.6845687344       13.2905175222       12.3266569780
  O         2.7941769900       13.3173699734        2.8054829285
  O         7.5334492901       13.2939827395       10.9432366776
  O         0.7868928382        9.8509665715        4.8620967270
  O         5.5019060135        9.8547304094       13.0296203396
  O         6.7411539216        9.8534506212        8.1450470442
  O         2.0463137406        9.9154008645       16.2825443458
  O         1.8907525160        9.8547945515        9.5217368327
  O         6.5942793288        9.8950921436       17.6747045844
  O         3.0618311907        8.5991377834        4.7483504744
  O         7.7533237510        8.5991740335       12.9023489321
  O         1.6250316310        8.5990631723        6.8939820602
  O         6.3329865333        8.5990861328       15.0577494755
  P         1.6045805744        8.5988512751        5.3300846856
  P         6.3047608989        8.5983804066       13.4776167096
 Ca         8.2146624923        8.5988972392        4.0991119349
 Ca         3.4759258240        8.5974649279       12.2866104955
  O         5.4998569941        8.5992026574        6.2507071126
  O         0.8014056001        8.5991133520       14.4362799132
  O         8.0924587057        8.5993155086        6.4251088034
  O         3.3757026930        8.5990877785       14.5820793159
  P         6.7339302821        8.5982430206        7.2245658873
  P         2.0286862823        8.5987831170       15.4401773188
 Ca         2.4020827401        8.5989408924        2.1620784361
 Ca         7.0904194305        8.5973210000       10.2874354190
  O         0.8731789037        8.5992270598       11.5417093442
  O         5.5892074783        8.5993100077       19.7274548369
  O        18.5735350212        8.5992390448        9.2357024898
  O         4.4791723267        8.5990404072       17.3160924124
  P         1.0992524157        8.5982804250        9.9923601074
  P         5.7724783781        8.5987206535       18.2262337720
 Ca         3.5661394310        8.5971553180        8.1504971702
 Ca         8.2736314565        8.5988370242       16.3585743900
  O         1.6681412194       12.0378129601        7.5678287220
  O         6.3545045886       12.0378523983       15.7430521655
  O         3.0772316128       12.0377865693        5.4168267224
  O         7.7888679963       12.0379523829       13.5808734504
  P         3.1187985253       12.0385798060        6.9948627761
  P         7.8232174023       12.0380956462       15.1415280237
 Ca         5.9496129281       12.0397174614        8.1855957314
 Ca         1.1885013101       12.0380558558       16.3523346553
  O         8.6265810755       12.0378839973        6.0433417846
  O         3.9228518686       12.0378085757       14.2316519701
  O         6.0537831054       12.0379424080        5.8980700187
  O         1.3322119021       12.0377192581       14.0455464262
  P         7.3966875319       12.0380875639        5.0416472808
  P         2.6875826403       12.0385502799       13.2453277783
 Ca         2.3308654644       12.0396404379       10.1860938880
 Ca         7.0675182357       12.0381607313       18.3084161967
  O         3.8317142552       12.0378406463        0.7462588399
  O         8.5524742041       12.0377522911        8.9352652422
  O         4.9388481114       12.0379529975        3.1660961649
  O         9.6980296222       12.0376848392       11.2423895945
  P         3.6533667060       12.0381335608        2.2484399126
  P         8.3254985176       12.0387279682       10.4783159431
 Ca         1.1669523421       12.0380213183        4.1223205668
 Ca         5.8613347267       12.0397143102       12.3251170182
 Ca         4.7039365764        6.8061218456        4.7629424382
 Ca         0.0032433570        6.8905822520       12.9705465317
 Ca        -0.0054844437       10.3291387719        7.5070310490
 Ca         4.7259494602       10.2248159554       15.6951118102
 Ca        -0.0055104980       13.7470655391        7.5071283823
 Ca         4.7260242526       13.8514463758       15.6950063729
 Ca         4.7039760159       10.3916454793        4.7628658726
 Ca         0.0032103638       10.3071889261       12.9705936695
  O         4.7132139296        7.9555992340       10.2409528971
  O        -0.0453692658        8.0108558091       18.2973850141
  H         4.7057855320        7.1464211068       10.2416544586
  H         0.0540097285        7.2301713342       18.5184039061
  O         4.7032552289       11.3996399457       10.2463992115
  O        -0.0776438075       11.3685473609       18.3188134771
  H         4.7217877303       10.6140091222       10.2360143382
  H         0.0869737714       10.5694221543       18.4912769206
  O         4.7048805561        5.7750787606       10.2515240750
  O        -0.0796182141        5.8286400864       18.3211845477
  H         4.7215678427        6.6059337327       10.2260909207
  H         0.0887128433        6.6284370295       18.4908226487
  O         4.7160259305        9.2632200742       10.2551981006
  O        -0.0486401321        9.1880334423       18.2847015721
  H         4.7050521454       10.0304110975       10.2268331390
  H         0.0563522215        9.9658082190       18.5244932396
  O        10.2110411965        7.3464107124        4.8622815587
  O        14.9263211264        7.3427807464       13.0302989126
  O        16.1659060280        7.3438532449        8.1437181907
  O        11.4702487465        7.2820523867       16.2822770534
  O        11.3135892968        7.3426292159        9.5216686384
  O        16.0179228537        7.3024243681       17.6747129238
  O        13.3453594583       10.7843621134        7.4553663031
  O        18.0567553475       10.7867650417       15.5889889777
  O        16.8234668087       10.7292886964        4.1900562326
  O        12.1096211835       10.7863004981       12.3252092276
  O        12.2177809656       10.7592968708        2.8055354104
  O        16.9560040612       10.7826204477       10.9431420475
  O        13.3448599140       13.2920131700        7.4545227463
  O        18.0565953251       13.2899934889       15.5887619560
  O        16.8234609028       13.3473628240        4.1902306154
  O        12.1088829997       13.2903685840       12.3263162162
  O        12.2181368995       13.3172832122        2.8055322685
  O        16.9569539571       13.2938846449       10.9431364046
  O        10.2108756928        9.8509445778        4.8619823252
  O        14.9259228135        9.8549018949       13.0296068455
  O        16.1653717732        9.8536762583        8.1448355294
  O        11.4701797200        9.9154803108       16.2826443096
  O        11.3146974365        9.8549880018        9.5217347219
  O        16.0181049565        9.8951537536       17.6745617951
  O        12.4858878381        8.5991476254        4.7483365319
  O        17.1772967582        8.5991861048       12.9023050245
  O        11.0489924988        8.5990848436        6.8940032585
  O        15.7569496283        8.5992293704       15.0576485206
  P        11.0285764127        8.5988354501        5.3300236116
  P        15.7288692918        8.5983488752       13.4776848125
 Ca        17.6387880901        8.5988855050        4.0989421175
 Ca        12.9003740704        8.5976962468       12.2859885423
  O        14.9238744925        8.5991779594        6.2506167047
  O        10.2253513977        8.5991579804       14.4362944634
  O        17.5164672663        8.5992675501        6.4251616068
  O        12.7996159236        8.5991379674       14.5821171268
  P        16.1578849200        8.5983865648        7.2245666032
  P        11.4527945197        8.5986716696       15.4401615425
 Ca        11.8261540935        8.5989178417        2.1621777198
 Ca        16.5135956992        8.5978689745       10.2874839517
  O        10.2971973540        8.5992331958       11.5417204751
  O        15.0130148408        8.5992109214       19.7273646245
  O         9.1495506230        8.5992729495        9.2357092401
  O        13.9030797249        8.5991312743       17.3159475423
  P        10.5232277430        8.5982674535        9.9924733687
  P        15.1966133535        8.5987014394       18.2263184109
 Ca        12.9905836099        8.5974822978        8.1512817716
 Ca        17.6976728082        8.5989168366       16.3588482336
  O        11.0922555099       12.0378297505        7.5679114195
  O        15.7784424599       12.0378663425       15.7430026546
  O        12.5012442042       12.0378073951        5.4169268936
  O        17.2125889739       12.0379991173       13.5806892291
  P        12.5425979550       12.0385747407        6.9946030790
  P        17.2472706917       12.0381032022       15.1417396431
 Ca        15.3743691915       12.0393676997        8.1842475852
 Ca        10.6125554653       12.0381265599       16.3522438398
  O        18.0505197571       12.0378902813        6.0433613216
  O        13.3468717430       12.0378352404       14.2314236050
  O        15.4776972659       12.0379176665        5.8982692808
  O        10.7562953593       12.0377549836       14.0454900510
  P        16.8208586808       12.0380909750        5.0415651035
  P        12.1115059826       12.0384978468       13.2455857835
 Ca        11.7532067684       12.0393621405       10.1860672095
 Ca        16.4916890808       12.0380521056       18.3086789180
  O        13.2556952079       12.0377615781        0.7462518739
  O        17.9763185852       12.0377790039        8.9352766619
  O        14.3628455746       12.0378522810        3.1661312526
  O         0.2737223946       12.0377710724       11.2423908679
  P        13.0773621682       12.0381315749        2.2484347157
  P        17.7499100345       12.0385973179       10.4783578317
 Ca        10.5909154256       12.0381307915        4.1223339709
 Ca        15.2860859010       12.0392284825       12.3263365008
 Ca        14.1279410283        6.8061270772        4.7629461623
 Ca         9.4271614121        6.8905683587       12.9704740838
 Ca         9.4184224986       10.3291452604        7.5070398794
 Ca        14.1501129759       10.2245825338       15.6952827654
 Ca         9.4183823697       13.7471023165        7.5070838012
 Ca        14.1501502679       13.8515965717       15.6951597826
 Ca        14.1280038476       10.3916529705        4.7628823381
 Ca         9.4271050897       10.3071647958       12.9705411851
  O        14.1327710617        7.9475250988       10.2456060514
  O         9.3747875847        8.0097280821       18.2851728150
  H        14.1357904559        7.1350194039       10.2379696787
  H         9.4801919709        7.2312116753       18.5246431255
  O        14.1318784184       11.4085725909       10.2514250776
  O         9.3444562413       11.3685183516       18.3209710284
  H        14.1428407371       10.6254575993       10.2306834036
  H         9.5125224507       10.5696607549       18.4907198114
  O        14.1337043096        5.7553436438       10.2555907287
  O         9.3429954779        5.8282264820       18.3246677719
  H        14.1396502140        6.6144665562       10.2249276081
  H         9.5127909410        6.6288939021       18.4875277650
  O        14.1437489108        9.2791954458       10.2490810291
  O         9.3795362407        9.1870168712       18.2980963722
  H        14.1271621011       10.0235380972       10.2329694387
  H         9.4774106712        9.9670120384       18.5179016946
  O         8.4195335361        6.8774446879       25.4881640083
  C         9.2747201284        7.2957623837       25.4691658068
  O        10.1314369588        7.7128082494       25.4345153021
     387
 i =        7, E =     -6914.2576814122
  O         0.7837712982        0.4679642320        4.8589365507
  O         5.5001885982        0.4640581020       13.0326514849
  O         6.7455227533        0.4648365527        8.1419327946
  O         2.0545038490        0.3892579645       16.2779675858
  O         1.8876774407        0.4630611089        9.5174718001
  O         6.5857163263        0.4189153919       17.6749560915
  O         3.9233797917        3.9058430310        7.4560693814
  O         8.6355010141        3.9065652719       15.5850663680
  O         7.3968919508        3.8394892774        4.1935384387
  O         2.6830481874        3.9074364328       12.3246952642
  O         2.7925235130        3.8814017405        2.8061783309
  O         7.5333826921        3.9028116063       10.9445235962
  O         3.9227550720        6.4123124082        7.4545725886
  O         8.6352981127        6.4120604962       15.5849711559
  O         7.3968462298        6.4790064300        4.1938067266
  O         2.6818315111        6.4109646513       12.3265747097
  O         2.7929687100        6.4371052344        2.8061671832
  O         7.5345498925        6.4154571721       10.9444942676
  O         0.7835291734        2.9713028894        4.8583746434
  O         5.4997177715        2.9755445882       13.0314703428
  O         6.7446080406        2.9748186975        8.1433371471
  O         2.0544737456        3.0499173457       16.2780870143
  O         1.8892325275        2.9765862577        9.5176485435
  O         6.5857822042        3.0203396349       17.6748973053
  O         3.0684585040        1.7201772856        4.7481193639
  O         7.7546079298        1.7202217355       12.9010768813
  O         1.6270117789        1.7201012693        6.8920643100
  O         6.3343726065        1.7203346236       15.0619609538
  P         1.6060775535        1.7199185987        5.3313855541
  P         6.3019798679        1.7193861169       13.4684446641
 Ca         8.2203236079        1.7199840788        4.1026090881
 Ca         3.4757686966        1.7176756486       12.2906303635
  O         5.4987099647        1.7202740563        6.2427162290
  O         0.8066269169        1.7201580447       14.4428063751
  O         8.0978952938        1.7202703052        6.4218407358
  O         3.3763452974        1.7200827184       14.5858445049
  P         6.7332491892        1.7193803655        7.2263380354
  P         2.0305305850        1.7201694788       15.4433366725
 Ca         2.4137253687        1.7199818227        2.1703426988
 Ca         7.0914750134        1.7177223743       10.2854617965
  O         0.8714664906        1.7203094446       11.5452857471
  O         5.5863477841        1.7201495076       19.7391524902
  O        18.5710173010        1.7203606184        9.2360358788
  O         4.4862699753        1.7200995656       17.3025534364
  P         1.1019543636        1.7192308773        9.9907565815
  P         5.7745317710        1.7200953602       18.2305125609
 Ca         3.5645248038        1.7177723977        8.1500219419
 Ca         8.2685145554        1.7200054624       16.3655427631
  O         1.6660240967        5.1587297686        7.5676632672
  O         6.3471657604        5.1588344025       15.7468683787
  O         3.0722600614        5.1586404635        5.4133793072
  O         7.7836748605        5.1590333836       13.5819316282
  P         3.1211522574        5.1598992413        7.0023794818
  P         7.8198789924        5.1591438866       15.1390608491
 Ca         5.9508737863        5.1613593574        8.1793897139
 Ca         1.1754974286        5.1590374440       16.3438754498
  O         8.6226964419        5.1588739888        6.0392894504
  O         3.9231650297        5.1587456221       14.2410823375
  O         6.0536331910        5.1589000425        5.8962963808
  O         1.3266165337        5.1585960423       14.0468481766
  P         7.3965451234        5.1592157120        5.0396177560
  P         2.6883835501        5.1598800243       13.2419629707
 Ca         2.3275831270        5.1615826834       10.1870547286
 Ca         7.0705004002        5.1589978630       18.2980332577
  O         3.8333151270        5.1587116877        0.7356775364
  O         8.5547289399        5.1587185623        8.9325644817
  O         4.9304585558        5.1588437496        3.1817539263
  O         9.7005355841        5.1586950031       11.2425663014
  P         3.6506949482        5.1591453286        2.2419409110
  P         8.3230560585        5.1596954768       10.4784351788
 Ca         1.1766026359        5.1591532677        4.1168108286
 Ca         5.8643746480        5.1612382585       12.3260760009
 Ca         4.7013405618       -0.0907531650        4.7564870363
 Ca         0.0040928884        0.0122198000       12.9726117366
 Ca        -0.0071136834        3.4506272463        7.5054045114
 Ca         4.7305006071        3.3221774487       15.6961548840
 Ca        -0.0071229732        6.8677111038        7.5055104582
 Ca         4.7305379510        6.9961581527       15.6960231236
 Ca         4.7014045794        3.5303714203        4.7563342489
 Ca         0.0039868000        3.4275030851       12.9727213003
  O         4.7096122964        1.0934695880       10.2487073867
  O        -0.0776077227        1.1328584324       18.2335619185
  H         4.7122310089        0.2730309324       10.2380227789
  H         0.0821176892        0.3680324750       18.5791760661
  O         4.7170517488        4.5560733691       10.2554967285
  O        -0.1101544988        4.4801136135       18.2839906272
  H         4.7110291726        3.7394581964       10.2262506565
  H         0.1269707291        3.6832304656       18.5281316258
  O         4.7172732030       12.6169179149       10.2601013675
  O        -0.1117493663       12.7161139990       18.2881160142
  H         4.7104335122       13.4753061730       10.2190379410
  H         0.1256725563       13.5163483390       18.5245172495
  O         4.7186453196        2.3679643617       10.2523748116
  O        -0.0590031885        2.3041342416       18.2499342683
  H         4.7059509104        3.1510873326       10.2317115755
  H         0.0710339849        3.0731504652       18.5705159014
  O        10.2077921381        0.4679012654        4.8590415281
  O        14.9242486163        0.4638300362       13.0325494818
  O        16.1695805050        0.4646204625        8.1418406344
  O        11.4783523544        0.3892056329       16.2779971806
  O        11.3116791962        0.4628391901        9.5176182566
  O        16.0094253491        0.4188080313       17.6748774402
  O        13.3474907257        3.9060220226        7.4560560858
  O        18.0595737286        3.9065620286       15.5850410932
  O        16.8209083097        3.8395314555        4.1935617814
  O        12.1069776831        3.9076209361       12.3244649432
  O        12.2164776114        3.8814516040        2.8062436514
  O        16.9569565283        3.9030213054       10.9445241529
  O        13.3470176661        6.4120481921        7.4550705257
  O        18.0593705783        6.4121053539       15.5847053682
  O        16.8207668817        6.4789946220        4.1938372305
  O        12.1059243729        6.4107348167       12.3261744294
  O        12.2170041432        6.4371304870        2.8060901846
  O        16.9582394592        6.4151872598       10.9444459903
  O        10.2075485006        2.9713646996        4.8584441468
  O        14.9237590097        2.9759493216       13.0317925646
  O        16.1687040768        2.9751091868        8.1432849660
  O        11.4783915985        3.0498873831       16.2781134981
  O        11.3128062014        2.9768704010        9.5175061223
  O        16.0099909335        3.0202106156       17.6748414992
  O        12.4924971685        1.7201694610        4.7481125175
  O        17.1786752230        1.7201740459       12.9010581600
  O        11.0509341862        1.7200992197        6.8919906298
  O        15.7583536278        1.7200397080       15.0619121948
  P        11.0299991801        1.7199195343        5.3315903492
  P        15.7259648258        1.7194798474       13.4683697195
 Ca        17.6442132668        1.7199684489        4.1027513402
 Ca        12.9005473762        1.7183690025       12.2892922717
  O        14.9226185626        1.7202619141        6.2426725952
  O        10.2305414529        1.7201039437       14.4427793722
  O        17.5218834437        1.7202392497        6.4217898124
  O        12.8002493153        1.7200716886       14.5859669081
  P        16.1572171105        1.7192693281        7.2264949634
  P        11.4547014983        1.7202585750       15.4432702470
 Ca        11.8377263347        1.7200182968        2.1703369997
 Ca        16.5140623375        1.7180704680       10.2855533832
  O        10.2953873434        1.7202526570       11.5453180828
  O        15.0102084670        1.7202727303       19.7392160080
  O         9.1468527821        1.7201795682        9.2360513512
  O        13.9101759115        1.7200203611       17.3025467137
  P        10.5261857162        1.7193357486        9.9908719421
  P        15.1986544414        1.7200163980       18.2304574593
 Ca        12.9892927285        1.7184224160        8.1513765432
 Ca        17.6925004044        1.7198732514       16.3657267047
  O        11.0901101633        5.1587573971        7.5677676300
  O        15.7713118145        5.1588142090       15.7466429749
  O        12.4962388716        5.1587699012        5.4134130321
  O        17.2076997989        5.1589358537       13.5816539074
  P        12.5449789051        5.1598030670        7.0021081950
  P        17.2437697777        5.1591465272       15.1392708900
 Ca        15.3759978913        5.1608738195        8.1773350247
 Ca        10.5998920573        5.1589804284       16.3436249883
  O        18.0466468413        5.1588684355        6.0392887739
  O        13.3471236753        5.1587505271       14.2409204479
  O        15.4775492945        5.1589055062        5.8964812064
  O        10.7505839989        5.1586508862       14.0468303198
  P        16.8206901050        5.1592207732        5.0395495371
  P        12.1123363983        5.1598887711       13.2422523171
 Ca        11.7493188804        5.1609810402       10.1870738303
 Ca        16.4946427463        5.1591846923       18.2982349921
  O        13.2572926382        5.1588019043        0.7356585758
  O        17.9785898339        5.1587163491        8.9325336952
  O        14.3544730621        5.1589577052        3.1817939538
  O         0.2762977610        5.1587057066       11.2425788234
  P        13.0746769936        5.1592436844        2.2419509805
  P        17.7474994803        5.1598444991       10.4784876938
 Ca        10.6005583253        5.1590405646        4.1167851760
 Ca        15.2896363933        5.1609780255       12.3282096299
 Ca        14.1253731186       -0.0905923702        4.7563414039
 Ca         9.4280197709        0.0122721904       12.9725330901
 Ca         9.4168528761        3.4506103896        7.5053845610
 Ca        14.1545175996        3.3224726488       15.6963034791
 Ca         9.4168143103        6.8676776505        7.5054876313
 Ca        14.1546005445        6.9959640610       15.6962311178
 Ca        14.1254105431        3.5301531281        4.7561886554
 Ca         9.4279668601        3.4275109420       12.9726279257
  O        14.1398643105        1.0813131527       10.2440942297
  O         9.3582004011        1.1360403723       18.2530128786
  H        14.1271714322        0.2604847589       10.2397327868
  H         9.4987732070        0.3651990805       18.5689430384
  O        14.1341454930        4.5674952962       10.2471665025
  O         9.3163512715        4.4805164778       18.2828092912
  H        14.1392750706        3.7542582532       10.2368023660
  H         9.5484303357        3.6826442641       18.5266330802
  O        14.1350214490       12.5907899249       10.2548650947
  O         9.3141831056       12.7168362995       18.2855856610
  H        14.1431513098       13.4836567315       10.2228140373
  H         9.5502746788       13.5154032562       18.5272777117
  O        14.1364992701        2.3875057694       10.2601173667
  O         9.3537312232        2.3069122509       18.2313923057
  H        14.1338422295        3.1489115691       10.2212801033
  H         9.5018917571        3.0702165585       18.5797237497
  O         0.7837314317        7.3469386521        4.8589351573
  O         5.5001661951        7.3431147427       13.0324702030
  O         6.7456730725        7.3437870107        8.1417778470
  O         2.0544746580        7.2683830536       16.2778986639
  O         1.8876896211        7.3420743205        9.5174748581
  O         6.5855652140        7.2979460922       17.6751513554
  O         3.9233468582       10.7848931100        7.4558778801
  O         8.6354918960       10.7857077223       15.5851634585
  O         7.3969388924       10.7186206303        4.1935970515
  O         2.6828626630       10.7866021898       12.3249340648
  O         2.7925213770       10.7605085197        2.8062082435
  O         7.5330854885       10.7819360604       10.9444371538
  O         3.9228330512       13.2913579908        7.4547727086
  O         8.6353290787       13.2911150582       15.5848116901
  O         7.3968358220       13.3580992891        4.1937250090
  O         2.6817131129       13.2900397529       12.3265198497
  O         2.7929860448       13.3162174422        2.8061156282
  O         7.5348312109       13.2945454448       10.9446506455
  O         0.7835941365        9.8504097674        4.8585882827
  O         5.4996866427        9.8547849433       13.0315897425
  O         6.7443942409        9.8537811570        8.1436307386
  O         2.0545321675        9.9291570077       16.2782444816
  O         1.8892297193        9.8556381271        9.5176392822
  O         6.5860194469        9.8995262606       17.6748766837
  O         3.0684555911        8.5991716622        4.7481405436
  O         7.7546492819        8.5992315693       12.9010960792
  O         1.6270258170        8.5990722179        6.8920038612
  O         6.3343402848        8.5991553645       15.0619108379
  P         1.6060855661        8.5989184859        5.3315328939
  P         6.3020197085        8.5983115920       13.4685341439
 Ca         8.2202357422        8.5988815504        4.1028091467
 Ca         3.4758370842        8.5968507119       12.2904614449
  O         5.4986843354        8.5992657761        6.2427537821
  O         0.8066500530        8.5991490229       14.4428312028
  O         8.0978255160        8.5994400990        6.4218391116
  O         3.3764215182        8.5991121973       14.5858263898
  P         6.7332992602        8.5981376887        7.2263363791
  P         2.0304146986        8.5987960748       15.4432642652
 Ca         2.4136811461        8.5989314084        2.1702845734
 Ca         7.0914801051        8.5966546526       10.2854620155
  O         0.8714703992        8.5992974579       11.5452855180
  O         5.5865074487        8.5994001598       19.7392484735
  O        18.5710025231        8.5993312502        9.2360591754
  O         4.4863207834        8.5990734850       17.3026694744
  P         1.1018840199        8.5981798698        9.9907922939
  P         5.7744379474        8.5987104466       18.2304628249
 Ca         3.5645053044        8.5964129086        8.1500674944
 Ca         8.2684821066        8.5987999881       16.3654182657
  O         1.6660730784       12.0377711350        7.5676394495
  O         6.3471480759       12.0378193640       15.7468521641
  O         3.0723148240       12.0377132762        5.4134378993
  O         7.7838263127       12.0379478991       13.5819566541
  P         3.1211531762       12.0385951128        7.0023890329
  P         7.8200649462       12.0380084892       15.1389813563
 Ca         5.9507622866       12.0403920319        8.1792684257
 Ca         1.1755992599       12.0380283547       16.3437621074
  O         8.6226817673       12.0378637146        6.0393052466
  O         3.9231382620       12.0377637716       14.2411676649
  O         6.0536594272       12.0379361806        5.8962646689
  O         1.3266415799       12.0376291729       14.0468758695
  P         7.3965860328       12.0379731134        5.0395627753
  P         2.6883141329       12.0385355433       13.2418087197
 Ca         2.3277280906       12.0402799174       10.1870434578
 Ca         7.0705723491       12.0381695987       18.2978924611
  O         3.8333177478       12.0377971940        0.7356796906
  O         8.5547455574       12.0376823466        8.9325974398
  O         4.9304607712       12.0379453762        3.1817567173
  O         9.7005497267       12.0375793148       11.2425535350
  P         3.6506605200       12.0380785921        2.2419406371
  P         8.3231230620       12.0388062645       10.4783763332
 Ca         1.1765944516       12.0380178031        4.1168808061
 Ca         5.8644763048       12.0404235227       12.3262607576
 Ca         4.7013252109        6.7883766530        4.7563919582
 Ca         0.0040670690        6.8912397649       12.9726308859
 Ca        -0.0070914307       10.3295504067        7.5053034346
 Ca         4.7304091698       10.2012520440       15.6961255436
 Ca        -0.0071252665       13.7466883243        7.5054212091
 Ca         4.7305048648       13.8750965337       15.6960094404
 Ca         4.7013736855       10.4093206032        4.7562898127
 Ca         0.0040231819       10.3064603454       12.9726927475
  O         4.7135479282        7.9726450993       10.2412037493
  O        -0.0658672371        8.0147704458       18.2512561077
  H         4.7019486341        7.1519312746       10.2441297208
  H         0.0747971138        7.2445115163       18.5701324070
  O         4.6991306681       11.4346343025       10.2491083069
  O        -0.1096706834       11.3594955537       18.2841435352
  H         4.7275431319       10.6190688498       10.2352198604
  H         0.1249961035       10.5615098947       18.5266624164
  O         4.7019877232        5.7379918564       10.2562760251
  O        -0.1124558087        5.8375036350       18.2876613143
  H         4.7270036572        6.5964682393       10.2193084655
  H         0.1276988006        6.6365777613       18.5261569744
  O         4.7179146480        9.2465017922       10.2624406869
  O        -0.0706898342        9.1859803460       18.2324329253
  H         4.7008556113       10.0305694913       10.2204482988
  H         0.0783389815        9.9495829443       18.5793326429
  O        10.2077020532        7.3469510607        4.8587895792
  O        14.9241851597        7.3427547133       13.0325811872
  O        16.1695392290        7.3434874765        8.1417922414
  O        11.4783787261        7.2683661129       16.2779709874
  O        11.3115303775        7.3417860261        9.5174584873
  O        16.0096771831        7.2980891938       17.6748584631
  O        13.3475657109       10.7851864121        7.4562080758
  O        18.0594656893       10.7857119461       15.5849691077
  O        16.8208328203       10.7186050584        4.1936161137
  O        12.1070323524       10.7868612031       12.3246635368
  O        12.2165393119       10.7604854689        2.8061317638
  O        16.9569968833       10.7821718012       10.9444461088
  O        13.3469728514       13.2911225930        7.4550681090
  O        18.0593151764       13.2910844091       15.5847166510
  O        16.8208256291       13.3580777499        4.1937504596
  O        12.1060816668       13.2897767990       12.3260892113
  O        12.2169205999       13.3161671807        2.8061732923
  O        16.9582547536       13.2943169815       10.9445082135
  O        10.2075587828        9.8503985768        4.8584366698
  O        14.9237620685        9.8550351520       13.0316835406
  O        16.1687833844        9.8541121480        8.1432199386
  O        11.4783043831        9.9292559090       16.2783878702
  O        11.3129969474        9.8559095181        9.5176289560
  O        16.0098087668        9.8996091006       17.6747018192
  O        12.4924999186        8.5991829501        4.7481174659
  O        17.1787322722        8.5992419963       12.9010573391
  O        11.0509042357        8.5990999458        6.8919807104
  O        15.7583282907        8.5993336544       15.0618734115
  P        11.0301280529        8.5989131233        5.3314961788
  P        15.7259977030        8.5982672031       13.4684849998
 Ca        17.6443571355        8.5988683365        4.1026452779
 Ca        12.9007048240        8.5971559550       12.2891553306
  O        14.9227215671        8.5992305044        6.2425660769
  O        10.2305089627        8.5992097284       14.4428332345
  O        17.5219421874        8.5993608205        6.4218300850
  O        12.8002840569        8.5991797706       14.5859476387
  P        16.1571230326        8.5983222081        7.2265034747
  P        11.4546427622        8.5986590450       15.4432155812
 Ca        11.8377586285        8.5989075274        2.1704200550
 Ca        16.5137611478        8.5973870727       10.2855257126
  O        10.2953924100        8.5993075402       11.5453273807
  O        15.0102353406        8.5992731806       19.7391851329
  O         9.1468350020        8.5993702943        9.2360586797
  O        13.9102390446        8.5991853483       17.3025180054
  P        10.5261447521        8.5981425706        9.9909323037
  P        15.1985544338        8.5987017277       18.2304708570
 Ca        12.9893873410        8.5968743336        8.1515682311
 Ca        17.6924603891        8.5988927366       16.3657381418
  O        11.0901390389       12.0377858172        7.5677485730
  O        15.7711096287       12.0378417972       15.7467921672
  O        12.4963055948       12.0377392423        5.4134816629
  O        17.2075285624       12.0380014845       13.5817545322
  P        12.5450076990       12.0386393050        7.0021273605
  P        17.2440249363       12.0380084439       15.1391860591
 Ca        15.3758274141       12.0399386363        8.1773898405
 Ca        10.5997205445       12.0381127468       16.3436427994
  O        18.0466352216       12.0378697464        6.0393238441
  O        13.3471791452       12.0377979865       14.2409200753
  O        15.4775756533       12.0379098018        5.8964808218
  O        10.7506615302       12.0376779317       14.0468425538
  P        16.8207529112       12.0379798718        5.0395018270
  P        12.1122739388       12.0385047553       13.2420407158
 Ca        11.7494535906       12.0399393230       10.1870252388
 Ca        16.4947402150       12.0380536974       18.2982266613
  O        13.2572917292       12.0377087245        0.7356656524
  O        17.9786089785       12.0377197129        8.9325666544
  O        14.3544607151       12.0378336163        3.1817894913
  O         0.2762839893       12.0377003926       11.2425838256
  P        13.0746538169       12.0379799813        2.2419442253
  P        17.7474602975       12.0386586985       10.4784695183
 Ca        10.6005673975       12.0381250775        4.1169095582
 Ca        15.2895371148       12.0397791898       12.3280207869
 Ca        14.1253248440        6.7884083140        4.7564373414
 Ca         9.4280670409        6.8912179397       12.9725450048
 Ca         9.4168917209       10.3295585151        7.5053082303
 Ca        14.1546287301       10.2009526839       15.6963146188
 Ca         9.4168378657       13.7467337896        7.5053707985
 Ca        14.1546730594       13.8752904518       15.6961672489
 Ca        14.1254020550       10.4093020345        4.7563523421
 Ca         9.4279961294       10.3064262407       12.9726290586
  O        14.1312716880        7.9602529584       10.2478081334
  O         9.3524256435        8.0121130105       18.2331038612
  H        14.1354919710        7.1384926038       10.2387500679
  H         9.5020313265        7.2469265925       18.5797555088
  O        14.1298809338       11.4463390029       10.2566555808
  O         9.3115910487       11.3592748166       18.2872942386
  H        14.1469049727       10.6333934728       10.2265510439
  H         9.5514979361       10.5620812888       18.5260776073
  O        14.1329703500        5.7122565531       10.2619752927
  O         9.3095020719        5.8365706714       18.2928174160
  H        14.1414894432        6.6035237291       10.2177483447
  H         9.5518140297        6.6375423358       18.5209823772
  O        14.1474659060        9.2661374504       10.2534920905
  O         9.3594656092        9.1833559884       18.2521799751
  H        14.1219489701       10.0280279374       10.2301406706
  H         9.4979375677        9.9522660853       18.5694192920
  O         8.4205309017        6.8767695241       25.4848896863
  C         9.2748527756        7.2960126157       25.4693553277
  O        10.1297410931        7.7128572580       25.4320272368
     387
 i =        8, E =     -6914.8911661741
  O         0.7786005327        0.4697870165        4.8526760957
  O         5.4961654526        0.4642545226       13.0363674537
  O         6.7520954951        0.4642812071        8.1385807825
  O         2.0701039583        0.3655856939       16.2689638884
  O         1.8841715026        0.4618670561        9.5096257565
  O         6.5695597376        0.4117437003       17.6760888298
  O         3.9273851226        3.9075427860        7.4579868641
  O         8.6394243418        3.9052580516       15.5764006625
  O         7.3914323785        3.8210201119        4.2008824541
  O         2.6784457980        3.9083333956       12.3231803890
  O         2.7906514477        3.8845732393        2.8065648411
  O         7.5352669503        3.9022082268       10.9470598114
  O         3.9266651266        6.4105153884        7.4557789565
  O         8.6392502569        6.4133406617       15.5763627749
  O         7.3913739309        6.4973704401        4.2011772252
  O         2.6765400416        6.4101156463       12.3259312698
  O         2.7911960539        6.4339002298        2.8065983697
  O         7.5367892322        6.4160065136       10.9471443650
  O         0.7783612711        2.9694658263        4.8519265070
  O         5.4956529556        2.9753505656       13.0347521052
  O         6.7506965877        2.9753623418        8.1405258829
  O         2.0700672405        3.0734836668       16.2690082260
  O         1.8863813356        2.9777731295        9.5100498968
  O         6.5695522678        3.0274477315       17.6760751264
  O         3.0792113309        1.7202478600        4.7484001000
  O         7.7560058474        1.7202790573       12.8985547827
  O         1.6309233912        1.7201307589        6.8885984108
  O         6.3371495810        1.7204712397       15.0668536768
  P         1.6091347535        1.7200401766        5.3319894551
  P         6.2981260590        1.7194855782       13.4540517015
 Ca         8.2311942619        1.7199904590        4.1093520686
 Ca         3.4755089663        1.7164939908       12.2979122895
  O         5.4981160196        1.7203797964        6.2289244630
  O         0.8167650564        1.7202050024       14.4555343370
  O         8.1063405283        1.7204118828        6.4168506720
  O         3.3771942092        1.7200773549       14.5930284777
  P         6.7322051864        1.7194475231        7.2264767523
  P         2.0341982641        1.7204256026       15.4502745406
 Ca         2.4361075442        1.7199809481        2.1861156110
 Ca         7.0933675485        1.7165501050       10.2815774267
  O         0.8689132655        1.7204320616       11.5503179334
  O         5.5813540960        1.7202119002       19.7581004369
  O        18.5673894452        1.7205467771        9.2372588154
  O         4.4998198167        1.7200984013       17.2787547313
  P         1.1053350434        1.7192016066        9.9885127374
  P         5.7779607599        1.7203110454       18.2400432751
 Ca         3.5616951354        1.7165555755        8.1490765979
 Ca         8.2572270049        1.7199510471       16.3760505877
  O         1.6631726574        5.1586076887        7.5673729267
  O         6.3353846128        5.1587753838       15.7531982156
  O         3.0632599391        5.1584228477        5.4100297240
  O         7.7738728718        5.1590596239       13.5834304158
  P         3.1241553507        5.1600325632        7.0140806717
  P         7.8131766919        5.1590408771       15.1361262251
 Ca         5.9538483149        5.1626162770        8.1663016228
 Ca         1.1505067289        5.1590293219       16.3274897235
  O         8.6152515590        5.1588173413        6.0315220933
  O         3.9219616111        5.1586271436       14.2577441857
  O         6.0537125126        5.1588660478        5.8926029685
  O         1.3177854342        5.1583519552       14.0477190050
  P         7.3964294697        5.1591721675        5.0346029108
  P         2.6897925435        5.1600056952       13.2389698457
 Ca         2.3203008634        5.1630384026       10.1888956635
 Ca         7.0757086956        5.1590529877       18.2773352667
  O         3.8363317445        5.1585876012        0.7193549889
  O         8.5584224307        5.1586011758        8.9289081910
  O         4.9140759200        5.1587745476        3.2096964284
  O         9.7041215410        5.1585548814       11.2423044879
  P         3.6454086949        5.1590184220        2.2280615183
  P         8.3202312369        5.1596572097       10.4781709853
 Ca         1.1947529331        5.1591964915        4.1061269079
 Ca         5.8706553777        5.1624189181       12.3293589774
 Ca         4.6963121760       -0.1232186452        4.7440112422
 Ca         0.0055931570        0.0133399609       12.9768967520
 Ca        -0.0103967540        3.4513286862        7.5017742376
 Ca         4.7391361052        3.2790946970       15.6979576881
 Ca        -0.0104226956        6.8671725314        7.5019294489
 Ca         4.7391831403        7.0393262847       15.6977618101
 Ca         4.6964070626        3.5626669463        4.7438172440
 Ca         0.0054580990        3.4262874760       12.9770648560
  O         4.7073018233        1.1147539841       10.2530253919
  O        -0.1273943550        1.1290994793       18.1281080467
  H         4.7129336853        0.2874830820       10.2398378775
  H         0.1275558686        0.4126359380       18.6944424435
  O         4.7217985189        4.6149872016       10.2657607515
  O        -0.1741289220        4.4641272659       18.2139919974
  H         4.7104147394        3.7511550746       10.2165008843
  H         0.2083002042        3.6842187444       18.5987438290
  O         4.7224663191       12.5577887565       10.2733597346
  O        -0.1768929348       12.7298791539       18.2207990958
  H         4.7086893661       13.4475944068       10.2032155099
  H         0.2053114776       13.5178794092       18.5917766993
  O         4.7234253257        2.3434520045       10.2604809924
  O        -0.0958161387        2.3022155138       18.1544961070
  H         4.7007369939        3.1558456589       10.2267876270
  H         0.1081495620        3.0332533427       18.6808653319
  O        10.2025433922        0.4696841743        4.8527596755
  O        14.9204697884        0.4640027022       13.0365891909
  O        16.1764890152        0.4640308817        8.1380281025
  O        11.4937675285        0.3655364881       16.2690567512
  O        11.3076462297        0.4616600483        9.5098284890
  O        15.9931206225        0.4115355857       17.6760022968
  O        13.3514199838        3.9079390667        7.4577283789
  O        18.0636409850        3.9052094484       15.5763817486
  O        16.8154861694        3.8210425002        4.2008549717
  O        12.1022218546        3.9087892297       12.3229968088
  O        12.2145775217        3.8845627578        2.8066213724
  O        16.9588718175        3.9026873182       10.9470324909
  O        13.3508771465        6.4099075688        7.4562836238
  O        18.0634636958        6.4134277957       15.5759924969
  O        16.8153152737        6.4973952737        4.2011534202
  O        12.1004884922        6.4095491841       12.3255491237
  O        12.2152674925        6.4338891127        2.8064518240
  O        16.9607579418        6.4154021191       10.9470704872
  O        10.2022972381        2.9695774450        4.8519533155
  O        14.9199427983        2.9759496737       13.0355450179
  O        16.1750570865        2.9758040754        8.1401609692
  O        11.4938806906        3.0735344460       16.2691322434
  O        11.3092408838        2.9781600147        9.5097996219
  O        15.9939591475        3.0272715548       17.6760207217
  O        12.5032649704        1.7202397709        4.7482602071
  O        17.1804448773        1.7202366612       12.8985911115
  O        11.0545940183        1.7201308594        6.8882637492
  O        15.7612211155        1.7200685089       15.0670364668
  P        11.0331411953        1.7200240723        5.3325589246
  P        15.7215640461        1.7194817508       13.4535288374
 Ca        17.6550258506        1.7199667269        4.1096260605
 Ca        12.9014135313        1.7174683344       12.2946757962
  O        14.9220112892        1.7203875693        6.2285944275
  O        10.2404569770        1.7201396069       14.4554829120
  O        17.5305950144        1.7203941354        6.4166014779
  O        12.8008949328        1.7200794393       14.5934604467
  P        16.1559191121        1.7191371045        7.2272698729
  P        11.4587522096        1.7204678594       15.4500838017
 Ca        11.8600759603        1.7200292375        2.1861463696
 Ca        16.5136552155        1.7169375622       10.2817475616
  O        10.2924834324        1.7203594364       11.5504675220
  O        15.0051358187        1.7203978609       19.7582690373
  O         9.1425507604        1.7202793967        9.2372325488
  O        13.9237427859        1.7200244635       17.2788506322
  P        10.5305549241        1.7192666839        9.9886189731
  P        15.2020231088        1.7201370978       18.2398232759
 Ca        12.9875741064        1.7174096803        8.1523090136
 Ca        17.6810358644        1.7199559659       16.3762743921
  O        11.0870353730        5.1586458009        7.5674736215
  O        15.7596833215        5.1587345943       15.7529177988
  O        12.4871622171        5.1586139729        5.4098133769
  O        17.1980613629        5.1589270329       13.5832115387
  P        12.5483422491        5.1599573334        7.0140469859
  P        17.2368621895        5.1590659629       15.1362556813
 Ca        15.3793341442        5.1620034870        8.1635890733
 Ca        10.5752497088        5.1589660311       16.3269731139
  O        18.0392963337        5.1588095273        6.0315097000
  O        13.3458699759        5.1586165865       14.2576203975
  O        15.4777276058        5.1588632045        5.8926293133
  O        10.7414656750        5.1584212945       14.0478607418
  P        16.8204161001        5.1591815758        5.0346419741
  P        12.1139442305        5.1601383818       13.2389654397
 Ca        11.7414126068        5.1622354451       10.1889232944
 Ca        16.4999122824        5.1592900436       18.2776794573
  O        13.2602978361        5.1587024976        0.7193078791
  O        17.9824706359        5.1585713344        8.9287603656
  O        14.3380810093        5.1589167460        3.2096767825
  O         0.2802910076        5.1585413380       11.2423917378
  P        13.0694078707        5.1592677345        2.2281297553
  P        17.7441255042        5.1600330985       10.4783382393
 Ca        10.6187616375        5.1590781538        4.1061449338
 Ca        15.2963432834        5.1621999163       12.3323531035
 Ca        14.1203375048       -0.1230315670        4.7440458039
 Ca         9.4298849002        0.0134227536       12.9767969468
 Ca         9.4138940705        3.4513048165        7.5017788245
 Ca        14.1631757267        3.2794611337       15.6980214069
 Ca         9.4138528937        6.8671196600        7.5019159142
 Ca        14.1632923626        7.0391032466       15.6979197599
 Ca        14.1203911280        3.5624071927        4.7438358864
 Ca         9.4297883708        3.4262965913       12.9769368612
  O        14.1423853326        1.0990112060       10.2449506828
  O         9.3154791077        1.1383272861       18.1606959166
  H        14.1191049620        0.2690131334       10.2429729427
  H         9.5391612109        0.4047242622       18.6778013796
  O        14.1331196370        4.6165309373       10.2498507477
  O         9.2540456280        4.4658462495       18.2116600979
  H        14.1421450129        3.7724844913       10.2371317194
  H         9.6273824705        3.6821471637       18.5958359448
  O        14.1351087446       12.5352877750       10.2630652011
  O         9.2504843269       12.7321180058       18.2165319377
  H        14.1499612021       13.4519744298       10.2101016396
  H         9.6308819787       13.5151405735       18.5973081951
  O        14.1366127258        2.3673885807       10.2752358602
  O         9.3095727579        2.3110002905       18.1232054692
  H        14.1317995039        3.1629219038       10.2061242030
  H         9.5441638355        3.0251325236       18.6956882123
  O         0.7785436115        7.3487529915        4.8526680197
  O         5.4960793245        7.3432983237       13.0361139566
  O         6.7523644924        7.3431966905        8.1382960019
  O         2.0700169917        7.2448076541       16.2688671410
  O         1.8841844819        7.3408950295        9.5096355140
  O         6.5693278843        7.2907639126       17.6763866636
  O         3.9273629140       10.7865697210        7.4576514306
  O         8.6394153323       10.7844487239       15.5765487045
  O         7.3914888841       10.7002353680        4.2009859474
  O         2.6781592867       10.7875904358       12.3236020662
  O         2.7906380275       10.7637003204        2.8066055074
  O         7.5346966992       10.7814169980       10.9468963551
  O         3.9267709165       13.2895922613        7.4561535915
  O         8.6392536310       13.2924014756       15.5761032037
  O         7.3913699262       13.3765242698        4.2010518847
  O         2.6765003440       13.2891279000       12.3258263430
  O         2.7912335117       13.3130360602        2.8065317642
  O         7.5372786949       13.2951518712       10.9473956803
  O         0.7784363661        9.8486167028        4.8522259039
  O         5.4956576043        9.8547442923       13.0349801943
  O         6.7503545487        9.8543424216        8.1409922655
  O         2.0701853847        9.9528950488       16.2692557316
  O         1.8863616124        9.8568532587        9.5100262751
  O         6.5698786449        9.9067759363       17.6760358537
  O         3.0792303968        8.5992395705        4.7484148015
  O         7.7561006602        8.5993249873       12.8985563325
  O         1.6309337179        8.5990889929        6.8884897016
  O         6.3371049316        8.5992737948       15.0667879568
  P         1.6091443731        8.5990278163        5.3322316311
  P         6.2981728200        8.5983424457       13.4541964809
 Ca         8.2310843510        8.5988433463        4.1095787044
 Ca         3.4755597964        8.5957403794       12.2976867953
  O         5.4980836548        8.5993835935        6.2289759127
  O         0.8167917785        8.5992167992       14.4555671891
  O         8.1062304168        8.5996944694        6.4168860574
  O         3.3773370742        8.5991544345       14.5930016170
  P         6.7322857641        8.5980424044        7.2264783008
  P         2.0340292887        8.5988440938       15.4501528438
 Ca         2.4360647982        8.5989096750        2.1860417724
 Ca         7.0934068066        8.5954223681       10.2815886288
  O         0.8689159270        8.5994239214       11.5503279331
  O         5.5815880153        8.5995799811       19.7581989056
  O        18.5673601490        8.5995123724        9.2372594908
  O         4.4998637444        8.5991360707       17.2789208684
  P         1.1052063104        8.5981041422        9.9885692848
  P         5.7778313061        8.5987177657       18.2400517716
 Ca         3.5616277094        8.5949916040        8.1491070628
 Ca         8.2572340012        8.5988221115       16.3759423435
  O         1.6632432858       12.0377012425        7.5673429102
  O         6.3353434690       12.0377527225       15.7531865418
  O         3.0633513341       12.0375719916        5.4101298515
  O         7.7740046274       12.0379375710       13.5834744829
  P         3.1241336582       12.0385108653        7.0140766093
  P         7.8134924085       12.0378765350       15.1360645549
 Ca         5.9536792579       12.0416724715        8.1661291743
 Ca         1.1506081177       12.0379797339       16.3272460282
  O         8.6152270596       12.0378200702        6.0315517129
  O         3.9218895121       12.0376818325       14.2578107091
  O         6.0537322725       12.0379224919        5.8925807219
  O         1.3178431892       12.0374492371       14.0477665482
  P         7.3965081027       12.0378013927        5.0344969684
  P         2.6896740405       12.0384222231       13.2387919163
 Ca         2.3205420044       12.0414693422       10.1888633543
 Ca         7.0759614636       12.0381923116       18.2772132155
  O         3.8363366543       12.0377082523        0.7193500641
  O         8.5584386868       12.0375486225        8.9289718717
  O         4.9140745337       12.0379291768        3.2096986322
  O         9.7041100257       12.0373639170       11.2422787121
  P         3.6453651983       12.0379735392        2.2280693870
  P         8.3203425632       12.0388911446       10.4780910127
 Ca         1.1947358887       12.0380121473        4.1062243234
 Ca         5.8707899293       12.0417813047       12.3296237964
 Ca         4.6962956179        6.7559852625        4.7438943622
 Ca         0.0055781095        6.8923909984       12.9769277467
 Ca        -0.0103761945       10.3301896543        7.5016474394
 Ca         4.7390256396       10.1581084742       15.6978730364
 Ca        -0.0104311580       13.7461163341        7.5017960827
 Ca         4.7391623617       13.9184136382       15.6977499829
 Ca         4.6963606217       10.4415778132        4.7437581565
 Ca         0.0055147573       10.3051788543       12.9770121224
  O         4.7144129154        7.9940271255       10.2397326152
  O        -0.1083414570        8.0166826134       18.1577218857
  H         4.6922074593        7.1660314343       10.2510256911
  H         0.1149393639        7.2842737581       18.6799456065
  O         4.6884731624       11.4934583530       10.2536339514
  O        -0.1734258615       11.3448161927       18.2141549754
  H         4.7420276978       10.6302773180       10.2342869322
  H         0.2043924149       10.5609935393       18.5957262456
  O         4.6944925815        5.6790875009       10.2662735612
  O        -0.1779677165        5.8526185657       18.2201472689
  H         4.7403646292        6.5692790122       10.2031095686
  H         0.2093273208        6.6364969940       18.5951310822
  O         4.7225901983        9.2223693423       10.2792100767
  O        -0.1151828915        9.1898546839       18.1251387583
  H         4.6899900106       10.0347308452       10.2048717792
  H         0.1208817020        9.9047963357       18.6950155588
  O        10.2024305070        7.3487262233        4.8524224403
  O        14.9203704358        7.3428323755       13.0366703148
  O        16.1764107782        7.3428286228        8.1379816986
  O        11.4938092796        7.2446937245       16.2690197074
  O        11.3073807195        7.3405531426        9.5095842920
  O        15.9935799589        7.2909875820       17.6759832580
  O        13.3515600103       10.7871553102        7.4579847618
  O        18.0635263586       10.7844266234       15.5763050483
  O        16.8153953163       10.7001679896        4.2009426201
  O        12.1021944236       10.7880379739       12.3233150325
  O        12.2146806527       10.7637106204        2.8064576023
  O        16.9589335082       10.7819330559       10.9469240722
  O        13.3508053511       13.2890585796        7.4562470352
  O        18.0633885923       13.2924086819       15.5760109121
  O        16.8153877465       13.3765346781        4.2010236391
  O        12.1008198510       13.2885760958       12.3253731549
  O        12.2151287099       13.3130496497        2.8065749735
  O        16.9608098255       13.2945784471       10.9471613370
  O        10.2023238069        9.8486389008        4.8519719775
  O        14.9199372759        9.8550889235       13.0354287917
  O        16.1752179045        9.8548318626        8.1399907874
  O        11.4937044124        9.9530048321       16.2695143648
  O        11.3095454924        9.8572166905        9.5099997707
  O        15.9936115402        9.9069095456       17.6758304642
  O        12.5032365417        8.5992556701        4.7483100584
  O        17.1805630669        8.5993383894       12.8985723463
  O        11.0545409079        8.5991344385        6.8882554708
  O        15.7611984573        8.5995222077       15.0670058698
  P        11.0333325261        8.5990349548        5.3323838448
  P        15.7216201795        8.5982239859       13.4537213985
 Ca        17.6551820551        8.5988279330        4.1094854887
 Ca        12.9015948323        8.5960967146       12.2945078909
  O        14.9221719798        8.5993309123        6.2284695921
  O        10.2403899702        8.5992996329       14.4555493611
  O        17.5306902148        8.5995533390        6.4166575369
  O        12.8010104360        8.5992483049       14.5934166444
  P        16.1557673575        8.5982790764        7.2272654573
  P        11.4586420073        8.5987035252       15.4499693284
 Ca        11.8601272036        8.5988775039        2.1862622250
 Ca        16.5132160801        8.5964564215       10.2817080992
  O        10.2924804349        8.5994501134       11.5504724487
  O        15.0051769405        8.5993943018       19.7581844169
  O         9.1425329111        8.5995710471        9.2372267700
  O        13.9238179894        8.5992705683       17.2788178463
  P        10.5304756140        8.5979665197        9.9887087800
  P        15.2018739134        8.5987413950       18.2398850096
 Ca        12.9877274124        8.5956393126        8.1525732706
 Ca        17.6809861394        8.5987767975       16.3762947619
  O        11.0870584369       12.0376967014        7.5674537474
  O        15.7594300335       12.0377909568       15.7531287038
  O        12.4872571144       12.0375864794        5.4099101207
  O        17.1978271375       12.0380080684       13.5833611726
  P        12.5483709957       12.0387447959        7.0140505558
  P        17.2371342099       12.0378572487       15.1361318569
 Ca        15.3791065818       12.0411213515        8.1636270420
 Ca        10.5749523907       12.0380976817       16.3270714831
  O        18.0392810787       12.0378278483        6.0315553753
  O        13.3459325348       12.0377215469       14.2576256891
  O        15.4777490789       12.0378925412        5.8926525585
  O        10.7415702387       12.0375127720       14.0478637235
  P        16.8205112770       12.0378086277        5.0345697910
  P        12.1138767721       12.0384915301       13.2387046919
 Ca        11.7416298179       12.0411220783       10.1888483051
 Ca        16.5000312739       12.0380718480       18.2776451527
  O        13.2602976936       12.0375955707        0.7193136732
  O        17.9825036455       12.0376035004        8.9288067600
  O        14.3380667563       12.0377883126        3.2096728915
  O         0.2802742681       12.0375514579       11.2423999013
  P        13.0693695047       12.0377247924        2.2281230204
  P        17.7440594332       12.0387468129       10.4783169294
 Ca        10.6187800013       12.0381236095        4.1063246029
 Ca        15.2961736602       12.0408932787       12.3320516080
 Ca        14.1202694463        6.7560400146        4.7441549005
 Ca         9.4299729628        6.8923537388       12.9768268807
 Ca         9.4139656317       10.3302050408        7.5016552614
 Ca        14.1633551087       10.1577056153       15.6980017340
 Ca         9.4138868380       13.7461799935        7.5017469837
 Ca        14.1634110288       13.9186700565       15.6978187737
 Ca        14.1203781861       10.4415412192        4.7440401391
 Ca         9.4298674962       10.3051299064       12.9769424181
  O        14.1275812334        7.9779035343       10.2513132277
  O         9.3072936173        8.0087039454       18.1264517560
  H        14.1346088562        7.1468352179       10.2417939725
  H         9.5440290670        7.2909696481       18.6961818188
  O        14.1247616770       11.4948911673       10.2679388633
  O         9.2458414693       11.3436128191       18.2192949819
  H        14.1572579419       10.6515603315       10.2170508230
  H         9.6332115229       10.5629229471       18.5952922857
  O        14.1312931956        5.6570014952       10.2764135500
  O         9.2421523093        5.8499387604       18.2284593189
  H        14.1457454796        6.5714183002       10.2008720036
  H         9.6335014678        6.6393731625       18.5856345898
  O        14.1566686278        9.2458230096       10.2629141618
  O         9.3177651592        9.1816897220       18.1587566766
  H        14.1087568379       10.0420456510       10.2236205480
  H         9.5376464353        9.9121718371       18.6790107743
  O         8.3664080047        6.8488118610       25.4797482838
  C         9.2738043308        7.2960324300       25.4713240443
  O        10.1834303839        7.7401474882       25.4245342525
     387
 i =        9, E =     -6915.4979464038
  O         0.7801571944        0.4725681737        4.8512437848
  O         5.4962690763        0.4658462129       13.0378318880
  O         6.7537505580        0.4655161639        8.1362016628
  O         2.0750753586        0.3654578534       16.2647870467
  O         1.8822577834        0.4632923147        9.5079507281
  O         6.5626614260        0.4141132517       17.6791900805
  O         3.9272068369        3.9101370610        7.4575615841
  O         8.6374811094        3.9068924976       15.5719339873
  O         7.3888347382        3.8220265835        4.2040280815
  O         2.6772900613        3.9100266165       12.3231834483
  O         2.7920933441        3.8888456259        2.8038243198
  O         7.5367761694        3.9042406910       10.9475919871
  O         3.9266024889        6.4081225313        7.4551967328
  O         8.6373527868        6.4116953532       15.5719666011
  O         7.3887802157        6.4963681227        4.2043340648
  O         2.6751405377        6.4087061136       12.3262234458
  O         2.7926842153        6.4296272105        2.8038630040
  O         7.5381059137        6.4141748836       10.9477523315
  O         0.7799284678        2.9667242748        4.8504679520
  O         5.4958463960        2.9736293831       13.0362600760
  O         6.7522351706        2.9739189510        8.1382185922
  O         2.0750564122        3.0736095307       16.2648064010
  O         1.8845675526        2.9761779016        9.5085175239
  O         6.5626844880        3.0251507549       17.6791896084
  O         3.0778982039        1.7202768060        4.7495112922
  O         7.7534445991        1.7202664191       12.8981394687
  O         1.6319693187        1.7201505831        6.8854355400
  O         6.3385142263        1.7205066662       15.0622039220
  P         1.6101875045        1.7200338142        5.3297094125
  P         6.2991682821        1.7197778651       13.4540843266
 Ca         8.2349165334        1.7199745769        4.1114480971
 Ca         3.4758648410        1.7162188720       12.2980953545
  O         5.5018382972        1.7203962826        6.2273292196
  O         0.8213014309        1.7202154568       14.4617991012
  O         8.1045676721        1.7204671254        6.4175985888
  O         3.3748873890        1.7200674138       14.5973202656
  P         6.7322285415        1.7197212731        7.2222077636
  P         2.0361387005        1.7204493659       15.4515626307
 Ca         2.4429570412        1.7199605526        2.1910444907
 Ca         7.0923475179        1.7163213352       10.2803953158
  O         0.8696705293        1.7204585650       11.5473748458
  O         5.5806704514        1.7202551492       19.7534244286
  O        18.5693409539        1.7206211649        9.2386014506
  O         4.5040640422        1.7200984019       17.2783521331
  P         1.1036852703        1.7194032876        9.9892565013
  P         5.7791903500        1.7202717904       18.2458678126
 Ca         3.5622153063        1.7161962771        8.1503082921
 Ca         8.2492222365        1.7195440036       16.3703550338
  O         1.6654365610        5.1585863413        7.5665041563
  O         6.3375718507        5.1587584992       15.7530951373
  O         3.0616706647        5.1583267460        5.4151365902
  O         7.7711031110        5.1590898327       13.5848328763
  P         3.1226411824        5.1598174390        7.0144879161
  P         7.8095987128        5.1589974012       15.1378113089
 Ca         5.9552889791        5.1629117445        8.1628761774
 Ca         1.1423974381        5.1590260620       16.3220957041
  O         8.6118198631        5.1588041604        6.0272626310
  O         3.9171686079        5.1586020469       14.2594657281
  O         6.0557953395        5.1588566067        5.8885329317
  O         1.3193530087        5.1582455242       14.0446803092
  P         7.3966469901        5.1591343684        5.0335147990
  P         2.6905709218        5.1597905499       13.2437029174
 Ca         2.3177950664        5.1635077952       10.1896189322
 Ca         7.0758642197        5.1590839604       18.2699584008
  O         3.8368376434        5.1585343778        0.7257875712
  O         8.5582483885        5.1586024346        8.9311656317
  O         4.9076060704        5.1587489201        3.2105775186
  O         9.7019750915        5.1585478310       11.2408714619
  P         3.6426099249        5.1589809342        2.2197223385
  P         8.3220260274        5.1592749645       10.4780610913
 Ca         1.1991719144        5.1592107489        4.1032278994
 Ca         5.8718868021        5.1626384042       12.3306756354
 Ca         4.6947292334       -0.1283967160        4.7419037100
 Ca         0.0059975450        0.0133362199       12.9782506961
 Ca        -0.0117484329        3.4511612076        7.5008100494
 Ca         4.7419528369        3.2718555290       15.6968793642
 Ca        -0.0117859382        6.8673876094        7.5009625492
 Ca         4.7419994040        7.0465978368       15.6967065471
 Ca         4.6948374544        3.5678072274        4.7417416525
 Ca         0.0058597114        3.4262572187       12.9784291886
  O         4.7047189257        1.1264891607       10.2531278257
  O        -0.1479355574        1.1176705229       18.0886094766
  H         4.7140014978        0.2898957700       10.2423977013
  H         0.1417976840        0.4402097043       18.7443507354
  O         4.7296013446        4.5938314647       10.2711188568
  O        -0.1979348952        4.4704507555       18.1877115466
  H         4.7099628798        3.7560811977       10.2093270929
  H         0.2454580976        3.7059053487       18.6235245557
  O         4.7318078783       12.5875988673       10.2850009154
  O        -0.2014976536       12.7204787394       18.1961878500
  H         4.7066080469       13.4268728587       10.1911641973
  H         0.2412749608       13.4987055402       18.6148791170
  O         4.7277288063        2.3242501821       10.2650659487
  O        -0.1059345315        2.3094187808       18.1153363086
  H         4.6962747192        3.1664944399       10.2235672768
  H         0.1183110186        3.0085382413       18.7309939963
  O        10.2040182217        0.4724489336        4.8512812669
  O        14.9207745159        0.4655982074       13.0384156354
  O        16.1785129111        0.4652547096        8.1351656295
  O        11.4985984377        0.3654707202       16.2649049364
  O        11.3052235068        0.4631280089        9.5081503857
  O        15.9861644525        0.4138104848       17.6791328891
  O        13.3511413957        3.9106704460        7.4570305233
  O        18.0617915713        3.9068329538       15.5719157971
  O        16.8129297519        3.8220263269        4.2039497776
  O        12.1009601498        3.9107044921       12.3231167708
  O        12.2160263804        3.8888137478        2.8038377868
  O        16.9604706941        3.9049018732       10.9475244122
  O        13.3507096345        6.4072877162        7.4555718914
  O        18.0616390478        6.4117971897       15.5715512676
  O        16.8127613243        6.4964206967        4.2042526189
  O        12.0988923448        6.4078958380       12.3260059346
  O        12.2167692236        6.4296355533        2.8036766051
  O        16.9624865442        6.4133760803       10.9476924633
  O        10.2037800142        2.9668491371        4.8504415454
  O        14.9203755052        2.9743192626       13.0374370149
  O        16.1767929277        2.9744261501        8.1375857378
  O        11.4988004759        3.0737857721       16.2650217755
  O        11.3068632424        2.9765994222        9.5082076644
  O        15.9872399725        3.0249401178       17.6791679827
  O        12.5019178500        1.7202701485        4.7492620287
  O        17.1781771501        1.7202452332       12.8982646366
  O        11.0554116490        1.7201468019        6.8849341837
  O        15.7626845704        1.7200911652       15.0626173642
  P        11.0343207469        1.7200163117        5.3304889218
  P        15.7221595914        1.7196732511       13.4531715478
 Ca        17.6586801189        1.7199451523        4.1118287577
 Ca        12.9027214287        1.7172155551       12.2932702511
  O        14.9258092639        1.7204356474        6.2267900644
  O        10.2448138866        1.7201715931       14.4617521919
  O        17.5290820058        1.7204961892        6.4171948011
  O        12.7984746072        1.7201047017       14.5979939185
  P        16.1556884303        1.7192191765        7.2234640446
  P        11.4609447215        1.7203623145       15.4512601458
 Ca        11.8668812627        1.7200165657        2.1911146118
 Ca        16.5105817335        1.7165436711       10.2806406996
  O        10.2929279334        1.7203893923       11.5475923023
  O        15.0044549818        1.7204663055       19.7536137625
  O         9.1439331643        1.7203212060        9.2385630806
  O        13.9280402589        1.7200711333       17.2785598960
  P        10.5296699986        1.7194260631        9.9893225972
  P        15.2031351367        1.7200631531       18.2455688625
 Ca        12.9890667829        1.7169646220        8.1551456034
 Ca        17.6728190676        1.7203609441       16.3704717706
  O        11.0890835237        5.1586337457        7.5665510139
  O        15.7619340602        5.1587084946       15.7528511211
  O        12.4855121750        5.1585580553        5.4146956869
  O        17.1954548142        5.1589356334       13.5847628628
  P        12.5471896436        5.1597355418        7.0147513764
  P        17.2332138243        5.1590404141       15.1378126627
 Ca        15.3807684357        5.1623903863        8.1601493038
 Ca        10.5673606587        5.1589619512       16.3213462332
  O        18.0359688028        5.1587916926        6.0272310487
  O        13.3410466023        5.1585737438       14.2594559114
  O        15.4799196096        5.1588498787        5.8883508728
  O        10.7427821660        5.1583077377       14.0449854727
  P        16.8204565152        5.1591475745        5.0336525915
  P        12.1148811507        5.1600410372       13.2433158891
 Ca        11.7389936703        5.1627360148       10.1896234416
 Ca        16.5001844170        5.1593428048       18.2703621612
  O        13.2608008868        5.1586627882        0.7257293573
  O        17.9825190454        5.1585335401        8.9309392548
  O        14.3316049222        5.1589085677        3.2104898771
  O         0.2786089280        5.1584861090       11.2410012513
  P        13.0666295104        5.1592444024        2.2198299220
  P        17.7453358313        5.1598731472       10.4783088036
 Ca        10.6232494871        5.1590910123        4.1033049878
 Ca        15.2975804745        5.1626727923       12.3338449402
 Ca        14.1187215126       -0.1282191820        4.7421737033
 Ca         9.4306943335        0.0134264546       12.9781855721
 Ca         9.4128974828        3.4511353768        7.5008486720
 Ca        14.1660127969        3.2721518276       15.6967775869
 Ca         9.4128664131        6.8673166761        7.5009719829
 Ca        14.1661432663        7.0464471921       15.6966978843
 Ca        14.1187824647        3.5675458730        4.7419674972
 Ca         9.4305605485        3.4262572558       12.9782997758
  O        14.1447943785        1.1081511676       10.2415457895
  O         9.2999519595        1.1314023224       18.1239516347
  H        14.1122164400        0.2788712089       10.2469492346
  H         9.5516026082        0.4293875839       18.7271897563
  O        14.1326683557        4.5925389434       10.2450573776
  O         9.2305819336        4.4741739975       18.1841262652
  H        14.1446389970        3.7659294651       10.2395202308
  H         9.6628755282        3.7018576268       18.6200534143
  O        14.1369092458       12.5760207917       10.2659845279
  O         9.2267417942       12.7251719523       18.1908382618
  H        14.1555778617       13.4198834577       10.2005433471
  H         9.6677447125       13.4936735287       18.6219009793
  O        14.1364389300        2.3439319327       10.2870163120
  O         9.2951180641        2.3230613841       18.0817591503
  H        14.1299506520        3.1876535178       10.1932870672
  H         9.5565909492        2.9973418229       18.7458767301
  O         0.7801007701        7.3515239114        4.8512518650
  O         5.4961299906        7.3448698366       13.0375070309
  O         6.7541028544        7.3444028513        8.1358514475
  O         2.0749497534        7.2447106329       16.2646848890
  O         1.8822693043        7.3423357081        9.5079839454
  O         6.5624090937        7.2930505393       17.6795123214
  O         3.9272165676       10.7890437642        7.4570831260
  O         8.6374925380       10.7860347214       15.5720883390
  O         7.3888953487       10.7012126905        4.2041343613
  O         2.6769491784       10.7892500073       12.3237198393
  O         2.7920696388       10.7679654600        2.8038678933
  O         7.5359076511       10.7834760662       10.9473418566
  O         3.9267237670       13.2871980533        7.4557050735
  O         8.6373058643       13.2907544697       15.5716199911
  O         7.3887791885       13.3755016644        4.2042197732
  O         2.6751866925       13.2876370336       12.3260560252
  O         2.7927258039       13.3087714290        2.8038009280
  O         7.5388093035       13.2933234577       10.9480674012
  O         0.7799889275        9.8458518546        4.8507720459
  O         5.4959303298        9.8530234868       13.0365966469
  O         6.7518172471        9.8529082772        8.1387909365
  O         2.0752110986        9.9530496483       16.2650661500
  O         1.8845213907        9.8551990832        9.5084829288
  O         6.5629990945        9.9044157538       17.6791401387
  O         3.0779201913        8.5992629679        4.7495264914
  O         7.7535576355        8.5993135655       12.8981292186
  O         1.6319793574        8.5990789909        6.8853512962
  O         6.3384713261        8.5992809243       15.0621431336
  P         1.6102039781        8.5990549176        5.3299370123
  P         6.2991849583        8.5987235488       13.4542110023
 Ca         8.2347863358        8.5988359113        4.1116650183
 Ca         3.4758736077        8.5955547438       12.2979127431
  O         5.5018251718        8.5994139675        6.2273966784
  O         0.8213149881        8.5992396411       14.4618264358
  O         8.1044541217        8.5998026749        6.4176582094
  O         3.3750342779        8.5991615723       14.5972957923
  P         6.7322799883        8.5982540798        7.2222031447
  P         2.0359916048        8.5988867445       15.4514449645
 Ca         2.4429244925        8.5989132694        2.1909690679
 Ca         7.0923904575        8.5951209908       10.2804170654
  O         0.8696691281        8.5994405039       11.5474013038
  O         5.5809167086        8.5996472630       19.7535084334
  O        18.5692847183        8.5995766278        9.2385882961
  O         4.5040839470        8.5991523118       17.2785167724
  P         1.1035478182        8.5983424450        9.9892926668
  P         5.7790920259        8.5987812890       18.2459285626
 Ca         3.5620754226        8.5945900774        8.1502422428
 Ca         8.2492591470        8.5991950300       16.3702961075
  O         1.6654950982       12.0377105159        7.5664762579
  O         6.3375203888       12.0377280598       15.7530728006
  O         3.0617593836       12.0375320308        5.4152414601
  O         7.7711989338       12.0379368946       13.5848401683
  P         3.1225969177       12.0381973801        7.0144768182
  P         7.8099477799       12.0379058162       15.1378182258
 Ca         5.9551270209       12.0420257686        8.1626857043
 Ca         1.1425459364       12.0379711072       16.3216823437
  O         8.6117871051       12.0378000765        6.0272868084
  O         3.9170685310       12.0376731971       14.2594965534
  O         6.0557606496       12.0379160977        5.8885596567
  O         1.3194062053       12.0373830021       14.0447527089
  P         7.3967691059       12.0378236359        5.0333873299
  P         2.6904503492       12.0381647266       13.2435701065
 Ca         2.3180293703       12.0417124218       10.1895759016
 Ca         7.0763440658       12.0382100433       18.2698776196
  O         3.8368416314       12.0376683028        0.7257758399
  O         8.5582561876       12.0375098967        8.9312347437
  O         4.9076174862       12.0379239851        3.2105940930
  O         9.7019320296       12.0372641944       11.2408376295
  P         3.6425705006       12.0379526599        2.2197269302
  P         8.3221710892       12.0387736958       10.4779945441
 Ca         1.1991514185       12.0380183520        4.1033181352
 Ca         5.8720507915       12.0421890628       12.3310447668
 Ca         4.6947098593        6.7508105001        4.7418009179
 Ca         0.0059961719        6.8924061643       12.9782944961
 Ca        -0.0117336424       10.3300211909        7.5006989167
 Ca         4.7418569805       10.1508406192       15.6967770009
 Ca        -0.0118066752       13.7463021634        7.5008303551
 Ca         4.7420084675       13.9257546628       15.6966896787
 Ca         4.6947760515       10.4466831575        4.7416678817
 Ca         0.0059249144       10.3051376310       12.9783570603
  O         4.7152099914        8.0059741465       10.2336865977
  O        -0.1234570009        8.0095058902       18.1204892518
  H         4.6838049525        7.1680407689       10.2580309494
  H         0.1270069419        7.3089494254       18.7296713929
  O         4.6748624108       11.4731316634       10.2513489167
  O        -0.1974821774       11.3534218038       18.1875863500
  H         4.7552898796       10.6337280604       10.2356934279
  H         0.2401449557       10.5807899236       18.6197720112
  O         4.6842861923        5.7099349657       10.2723152366
  O        -0.2023252829        5.8456274123       18.1957181906
  H         4.7513017343        6.5492230271       10.1907490308
  H         0.2466570989        6.6152543648       18.6190080171
  O         4.7271140840        9.2045526718       10.2934869662
  O        -0.1301009447        9.2016371576       18.0839992174
  H         4.6795685541       10.0445506949       10.1916042659
  H         0.1334561584        9.8770859731       18.7451903616
  O        10.2039234689        7.3514789590        4.8509435060
  O        14.9206964932        7.3443971112       13.0385244104
  O        16.1783508173        7.3440439768        8.1352087634
  O        11.4986889004        7.2444669162       16.2649031095
  O        11.3048649474        7.3419862614        9.5078812567
  O        15.9867553096        7.2933025392       17.6790974918
  O        13.3513416763       10.7898232944        7.4573910313
  O        18.0617364760       10.7860072924       15.5718880354
  O        16.8128402304       10.7011176049        4.2040303146
  O        12.1008087475       10.7897968790       12.3234785507
  O        12.2161201569       10.7679569586        2.8036777671
  O        16.9605099321       10.7841506185       10.9474002747
  O        13.3506001101       13.2864669572        7.4554431751
  O        18.0615911829       13.2907857492       15.5716017015
  O        16.8128347210       13.3755366934        4.2041357350
  O        12.0993220299       13.2869096339       12.3257179038
  O        12.2166218724       13.3088050233        2.8037987445
  O        16.9626015229       13.2925229469       10.9478009067
  O        10.2038170074        9.8458961014        4.8504573357
  O        14.9203701510        9.8533848361       13.0373437144
  O        16.1770444365        9.8534780721        8.1372800014
  O        11.4985363982        9.9530880004       16.2653974751
  O        11.3072488336        9.8556071440        9.5084455562
  O        15.9867559407        9.9046165986       17.6789762324
  O        12.5018915872        8.5992820587        4.7493185740
  O        17.1783048923        8.5993361779       12.8982478642
  O        11.0553587798        8.5991418764        6.8849166072
  O        15.7626692018        8.5995552777       15.0626107155
  P        11.0344848590        8.5990621912        5.3303051290
  P        15.7222026525        8.5985100840       13.4533423864
 Ca        17.6588494039        8.5988262791        4.1116889818
 Ca        12.9029117365        8.5957677116       12.2931056730
  O        14.9259620635        8.5993535863        6.2266597263
  O        10.2447322677        8.5993114900       14.4618200544
  O        17.5291712417        8.5996129216        6.4172542581
  O        12.7985905714        8.5992497709       14.5979520693
  P        16.1555537819        8.5985130302        7.2234623223
  P        11.4608371244        8.5988320597       15.4511548166
 Ca        11.8669384454        8.5988717572        2.1912340920
 Ca        16.5101160568        8.5961979962       10.2805913066
  O        10.2929150908        8.5994861748       11.5475942018
  O        15.0044980731        8.5994404065       19.7534973528
  O         9.1439176898        8.5996557494        9.2385568587
  O        13.9280989991        8.5992657634       17.2785130492
  P        10.5295991312        8.5980862710        9.9894005732
  P        15.2030075146        8.5988013073       18.2456668055
 Ca        12.9892599372        8.5952248571        8.1554342206
 Ca        17.6727644276        8.5984189322       16.3705210995
  O        11.0890810597       12.0376662372        7.5665369013
  O        15.7617649260       12.0377704795       15.7530460345
  O        12.4855962254       12.0374949432        5.4147836094
  O        17.1952464965       12.0380121369       13.5849153008
  P        12.5472063500       12.0386797374        7.0147351677
  P        17.2333098147       12.0378640804       15.1376802257
 Ca        15.3805804645       12.0416251316        8.1601457802
 Ca        10.5670103352       12.0381081791       16.3216133028
  O        18.0359480640       12.0378120558        6.0272632839
  O        13.3410911886       12.0377000933       14.2594390009
  O        15.4799100247       12.0378870732        5.8883997815
  O        10.7428823050       12.0374369931       14.0449464700
  P        16.8205736868       12.0378239461        5.0335805785
  P        12.1148575859       12.0383515646       13.2431440940
 Ca        11.7392656027       12.0415721730       10.1895539390
 Ca        16.5001414828       12.0380941186       18.2702705196
  O        13.2608004855       12.0375417618        0.7257309681
  O        17.9825512485       12.0375724623        8.9309798013
  O        14.3315953381       12.0377642201        3.2104895110
  O         0.2785974522       12.0374834036       11.2410197209
  P        13.0665914459       12.0376913477        2.2198223884
  P        17.7452739129       12.0386511147       10.4782929279
 Ca        10.6232775547       12.0381345323        4.1034890719
 Ca        15.2973512969       12.0413062719       12.3334804178
 Ca        14.1186526254        6.7508541160        4.7422794518
 Ca         9.4308044132        6.8923622076       12.9782144679
 Ca         9.4129895864       10.3300455905        7.5007140550
 Ca        14.1661963372       10.1504401798       15.6967580779
 Ca         9.4129033131       13.7463771681        7.5007977159
 Ca        14.1662488643       13.9260040987       15.6966001055
 Ca        14.1187702544       10.4466702103        4.7421717668
 Ca         9.4306782612       10.3050951605       12.9783333599
  O        14.1238059716        7.9868433248       10.2505067639
  O         9.2916323670        7.9973311092       18.0855309880
  H        14.1338917179        7.1569811230       10.2458761111
  H         9.5561592120        7.3178929172       18.7471373969
  O        14.1183879109       11.4702847538       10.2760705367
  O         9.2212526148       11.3500156986       18.1944365593
  H        14.1674138877       10.6449950529       10.2095661120
  H         9.6705380741       10.5846352365       18.6193314989
  O        14.1298465100        5.6978080645       10.2901114465
  O         9.2165256395        5.8407978886       18.2059944767
  H        14.1488238973        6.5390341901       10.1877784106
  H         9.6707545726        6.6205666625       18.6073503234
  O        14.1653482947        9.2224707843       10.2685779042
  O         9.3033187440        9.1891807096       18.1212463332
  H        14.0966749198       10.0671212472       10.2190392685
  H         9.5495369169        9.8872323848       18.7287290385
  O         8.2370525866        6.7863876676       25.4814361589
  C         9.2769477901        7.2978513420       25.4730957638
  O        10.3094670478        7.8002366705       25.4181015560
     387
 i =       10, E =     -6916.2431841332
  O         0.7751079859        0.4754626281        4.8426880854
  O         5.4883440296        0.4634468806       13.0379600386
  O         6.7621439103        0.4621148698        8.1337741695
  O         2.1007363609        0.3338346995       16.2461861662
  O         1.8802247488        0.4603061381        9.4963671334
  O         6.5379864834        0.4021520307       17.6812075807
  O         3.9348762890        3.9106817076        7.4644463208
  O         8.6398544905        3.9060072767       15.5547037565
  O         7.3793930559        3.7976702300        4.2177105804
  O         2.6714809237        3.9088715160       12.3163790164
  O         2.7872495964        3.8920538624        2.8039924928
  O         7.5372126335        3.9026210067       10.9518190608
  O         3.9344065694        6.4078804958        7.4612410474
  O         8.6398087289        6.4124857981       15.5549349020
  O         7.3793296416        6.5206043142        4.2180892533
  O         2.6683365044        6.4104881564       12.3208284064
  O         2.7880678823        6.4263188053        2.8040754402
  O         7.5380597956        6.4161471856       10.9521073625
  O         0.7748679253        2.9639252685        4.8416846492
  O         5.4880661624        2.9758399798       13.0362747014
  O         6.7601122015        2.9769149883        8.1362903583
  O         2.1008170405        3.1052169675       16.2460630284
  O         1.8832581433        2.9788375684        9.4973610155
  O         6.5380993486        3.0373182411       17.6812625215
  O         3.0896674699        1.7204036759        4.7519147282
  O         7.7541478293        1.7202773974       12.8909905480
  O         1.6389333464        1.7202208322        6.8858775171
  O         6.3444431001        1.7206892758       15.0567562598
  P         1.6165564437        1.7201023226        5.3210730408
  P         6.2998868312        1.7204970001       13.4487461768
 Ca         8.2526487469        1.7199461123        4.1200049600
 Ca         3.4725724624        1.7149211797       12.3156253306
  O         5.5050843112        1.7205095821        6.2122420484
  O         0.8330099504        1.7202737726       14.4775426904
  O         8.1127864799        1.7206772792        6.4147585442
  O         3.3794676356        1.7200378717       14.6012692263
  P         6.7320826728        1.7203819008        7.2066113438
  P         2.0439948711        1.7207136019       15.4744494545
 Ca         2.4804387597        1.7199165736        2.2165485619
 Ca         7.0998243532        1.7151791439       10.2742765787
  O         0.8683875190        1.7206019454       11.5492918118
  O         5.5738939462        1.7204275204       19.7754322744
  O        18.5653052074        1.7209207216        9.2417894398
  O         4.5244135783        1.7201309166       17.2458932867
  P         1.1009219703        1.7197989517        9.9902819928
  P         5.7773584046        1.7202791444       18.2673624530
 Ca         3.5560354873        1.7147091684        8.1435332477
 Ca         8.2182490747        1.7182399874       16.3673993087
  O         1.6626150441        5.1584626074        7.5681525849
  O         6.3254389210        5.1586722901       15.7599096152
  O         3.0494516816        5.1579651178        5.4212015953
  O         7.7552192203        5.1591840215       13.5797987861
  P         3.1201964687        5.1594199250        7.0189192549
  P         7.7970845901        5.1588563428       15.1418732973
 Ca         5.9638471349        5.1641914508        8.1354208583
 Ca         1.1039811975        5.1590154785       16.2949557927
  O         8.6043581385        5.1587323862        6.0187628944
  O         3.9104179201        5.1584671786       14.2774926197
  O         6.0534367433        5.1587988835        5.8865784773
  O         1.3104593475        5.1578299997       14.0388599519
  P         7.3952328792        5.1590299533        5.0160467410
  P         2.6923992351        5.1593960031       13.2569124876
 Ca         2.3001540533        5.1654855187       10.1934699602
 Ca         7.0748458915        5.1591499505       18.2353490865
  O         3.8421148501        5.1582877848        0.7049828951
  O         8.5618587732        5.1585501299        8.9285319920
  O         4.8787967772        5.1586357271        3.2474744864
  O         9.7051769945        5.1584839222       11.2384142017
  P         3.6388196338        5.1588445796        2.1964516736
  P         8.3252578558        5.1582474192       10.4761693892
 Ca         1.2271322891        5.1592847132        4.0842003042
 Ca         5.8837719849        5.1636796932       12.3433718951
 Ca         4.6867070979       -0.1742448505        4.7207336610
 Ca         0.0085472592        0.0146353841       12.9885292140
 Ca        -0.0175381675        3.4517651659        7.4925966306
 Ca         4.7553984906        3.2115720192       15.7018577051
 Ca        -0.0175861421        6.8670083945        7.4927700651
 Ca         4.7554504183        7.1070670053       15.7017226077
 Ca         4.6868584806        3.6134196243        4.7206278723
 Ca         0.0083563527        3.4248077948       12.9887561731
  O         4.6944189826        1.1076699042       10.2552692777
  O        -0.2267019086        1.0792757218       17.9384462631
  H         4.7180350641        0.2856149107       10.2516422782
  H         0.2053593296        0.5432994897       18.9307643576
  O         4.7567005364        4.5829363084       10.2942610670
  O        -0.2955880863        4.4347465497       18.0839314482
  H         4.7073638006        3.7622795888       10.1816471419
  H         0.3835906611        3.7412101456       18.7300064434
  O         4.7649282723       12.6091769223       10.3341757605
  O        -0.3024181338       12.7464312979       18.0973874433
  H         4.6973508319       13.4101499437       10.1439331323
  H         0.3764462757       13.4702700147       18.7165294377
  O         4.7440015888        2.3421235301       10.2836566084
  O        -0.1495229664        2.3363184697       17.9654197878
  H         4.6805217904        3.1686328925       10.2132561167
  H         0.1672120680        2.9128644719       18.9167656667
  O        10.1988157253        0.4753169004        4.8426586420
  O        14.9131824033        0.4629486090       13.0392069956
  O        16.1878065710        0.4615954679        8.1315991575
  O        11.5239039550        0.3339844458       16.2463790637
  O        11.3022296842        0.4600363756        9.4965923318
  O        15.9611261799        0.4014917749       17.6811705475
  O        13.3586068188        3.9115338102        7.4631122747
  O        18.0643115834        3.9059837512       15.5546092917
  O        16.8035635243        3.7976618110        4.2175423895
  O        12.0949019905        3.9101467418       12.3165303057
  O        12.2111780053        3.8919848531        2.8039237025
  O        16.9607709032        3.9037124720       10.9516716889
  O        13.3585308391        6.4065876529        7.4617887837
  O        18.0641962869        6.4126080330       15.5542407134
  O        16.8033582492        6.5206910696        4.2179115574
  O        12.0917211769        6.4091284426       12.3207321053
  O        12.2121924981        6.4263702235        2.8037640128
  O        16.9631957997        6.4150089828       10.9521217503
  O        10.1985618940        2.9640727298        4.8415638062
  O        14.9131384637        2.9769534000       13.0385081531
  O        16.1850952944        2.9776846805        8.1350843364
  O        11.5243710291        3.1056923101       16.2465512984
  O        11.3040859729        2.9794936241        9.4968118750
  O        15.9630917819        3.0369369608       17.6812974520
  O        12.5136237629        1.7204004511        4.7514039723
  O        17.1793988537        1.7202627437       12.8913517550
  O        11.0618707289        1.7202073296        6.8851085605
  O        15.7687579005        1.7200891220       15.0575588166
  P        11.0408995794        1.7200730727        5.3222834481
  P        15.7222085995        1.7203868349       13.4471019218
 Ca        17.6762337100        1.7198939200        4.1206770492
 Ca        12.9019306775        1.7164362790       12.3065053697
  O        14.9292265864        1.7206182382        6.2112826639
  O        10.2561608464        1.7202773917       14.4775900507
  O        17.5377652808        1.7208193124        6.4140725800
  O        12.8028615657        1.7201739727       14.6024776404
  P        16.1551006181        1.7194620427        7.2086660301
  P        11.4692602825        1.7203288466       15.4738417701
 Ca        11.9042587520        1.7199907313        2.2167334142
 Ca        16.5125456724        1.7152081602       10.2747169777
  O        10.2909594805        1.7205038015       11.5496194058
  O        14.9976118824        1.7207440566       19.7755883925
  O         9.1387500142        1.7204429399        9.2418112010
  O        13.9484039168        1.7201928397       17.2463105787
  P        10.5282507038        1.7199409138        9.9903111328
  P        15.2011554809        1.7199820460       18.2670215479
 Ca        12.9854887494        1.7156447836        8.1527083579
 Ca        17.6413964112        1.7217231312       16.3672948835
  O        11.0859150950        5.1585821609        7.5680995618
  O        15.7498947812        5.1585870818       15.7596797046
  O        12.4731810316        5.1584103676        5.4203681020
  O        17.1798613961        5.1589446528       13.5798944962
  P        12.5452741449        5.1589562720        7.0196128727
  P        17.2207356012        5.1589205699       15.1417874733
 Ca        15.3897600059        5.1634548074        8.1318793243
 Ca        10.5296201232        5.1589614148       16.2933866163
  O        18.0286922360        5.1587091093        6.0186795835
  O        13.3342183053        5.1584143985       14.2776864771
  O        15.4777325235        5.1587853835        5.8860220285
  O        10.7334096277        5.1579189318       14.0395201924
  P        16.8187942364        5.1590560607        5.0162908551
  P        12.1168899503        5.1597649937       13.2559140465
 Ca        11.7206814054        5.1642620352       10.1934352774
 Ca        16.4998360739        5.1595369393       18.2360246642
  O        13.2660543393        5.1584801545        0.7049172711
  O        17.9865175426        5.1583923444        8.9281768158
  O        14.3027855344        5.1588706164        3.2472609425
  O         0.2826255473        5.1582983267       11.2385751088
  P        13.0628858290        5.1591902360        2.1966187947
  P        17.7477940672        5.1593603123       10.4765685030
 Ca        10.6513495438        5.1591337297        4.0844257891
 Ca        15.3100510615        5.1641651004       12.3478193215
 Ca        14.1106169928       -0.1740465872        4.7214990400
 Ca         9.4341070606        0.0147563020       12.9885216350
 Ca         9.4079105814        3.4517236600        7.4927252427
 Ca        14.1795602517        3.2117772586       15.7013752481
 Ca         9.4078865779        6.8668858599        7.4928200573
 Ca        14.1797475206        7.1070708926       15.7013725387
 Ca        14.1107021516        3.6130881468        4.7213005136
 Ca         9.4338847039        3.4247769625       12.9885807757
  O        14.1545286631        1.0864573410       10.2299979123
  O         9.2362906003        1.1055692283       17.9814338976
  H        14.0882919743        0.2745062884       10.2608021002
  H         9.6082385211        0.5245523064       18.9106084186
  O        14.1306055230        4.5996359184       10.2314832254
  O         9.1353893010        4.4446714454       18.0765002849
  H        14.1544587761        3.7616705017       10.2508913548
  H         9.7959345153        3.7323448740       18.7251044777
  O        14.1411431610       12.5915612935       10.2839855378
  O         9.1296316066       12.7589456742       18.0889962982
  H        14.1751562553       13.3934896102       10.1642592051
  H         9.8051539185       13.4593986467       18.7277589999
  O        14.1352467279        2.3675286788       10.3306692491
  O         9.2348018532        2.3632206366       17.9240688871
  H        14.1229564000        3.1954218764       10.1485762845
  H         9.6136455377        2.8933499328       18.9332755150
  O         0.7750514391        7.3544074830        4.8427323485
  O         5.4880411251        7.3424688630       13.0373018295
  O         6.7628191494        7.3408967404        8.1331577276
  O         2.1005240596        7.2132569053       16.2460047531
  O         1.8802016578        7.3394775022        9.4964722014
  O         6.5376372081        7.2808530498       17.6816695628
  O         3.9349097983       10.7893044630        7.4634027850
  O         8.6398968670       10.7851059309       15.5548858173
  O         7.3794693803       10.6768352249        4.2178451394
  O         2.6709298035       10.7881145222       12.3173918278
  O         2.7871974093       10.7711859880        2.8040590010
  O         7.5352077459       10.7819845432       10.9512374071
  O         3.9346143578       13.2869232126        7.4623154506
  O         8.6396537880       13.2915719416       15.5542855983
  O         7.3793310057       13.3997151857        4.2179709833
  O         2.6686265120       13.2891840587       12.3203720250
  O         2.7881298525       13.3055013529        2.8040050063
  O         7.5396234340       13.2953262986       10.9526897726
  O         0.7749237430        9.8430452583        4.8420779950
  O         5.4883563215        9.8553711251       13.0369904310
  O         6.7593396624        9.8559248028        8.1373548086
  O         2.1010686180        9.9848402374       16.2464363541
  O         1.8831368115        9.8577225969        9.4972911367
  O         6.5384503969        9.9165147463       17.6811763594
  O         3.0896827467        8.5993808927        4.7519371922
  O         7.7543017241        8.5993308553       12.8909565841
  O         1.6389541224        8.5990722959        6.8858345632
  O         6.3443834102        8.5993055566       15.0566574746
  P         1.6165917380        8.5991674961        5.3213057936
  P         6.2998608505        8.5996735688       13.4488565130
 Ca         8.2524572766        8.5987804547        4.1202520251
 Ca         3.4724272245        8.5945650600       12.3155835583
  O         5.5051150299        8.5995808699        6.2123805800
  O         0.8330016291        8.5993556024       14.4775681165
  O         8.1126211775        8.6002579766        6.4148956764
  O         3.3796547789        8.5992238533       14.6012459252
  P         6.7320731229        8.5985598648        7.2065611924
  P         2.0438563123        8.5989815574       15.4743211244
 Ca         2.4804142613        8.5988914650        2.2164488087
 Ca         7.0998911117        8.5936989570       10.2743184870
  O         0.8683704020        8.5995770421       11.5493583847
  O         5.5742230171        8.5999694731       19.7755645433
  O        18.5651499372        8.5998601719        9.2417548152
  O         4.5244119102        8.5992231525       17.2461162223
  P         1.1007564131        8.5987503847        9.9902577035
  P         5.7772699589        8.5989258342       18.2674743464
 Ca         3.5556523819        8.5927255589        8.1431539877
 Ca         8.2183745266        8.6003672969       16.3674424923
  O         1.6626820793       12.0376868343        7.5681258465
  O         6.3253523056       12.0376039474       15.7598568959
  O         3.0495625730       12.0373675248        5.4213544755
  O         7.7552293942       12.0379322145       13.5797322745
  P         3.1201117666       12.0373235620        7.0189076260
  P         7.7975933085       12.0378645130       15.1420074567
 Ca         5.9636315968       12.0435291649        8.1351668747
 Ca         1.1043561674       12.0379552881       16.2939532745
  O         8.6042965690       12.0377074424        6.0187933340
  O         3.9102335778       12.0375879276       14.2774503212
  O         6.0533124457       12.0378828481        5.8866977533
  O         1.3105123108       12.0371049057       14.0390199821
  P         7.3954488361       12.0377914727        5.0158519294
  P         2.6922063374       12.0374771599       13.2568700902
 Ca         2.3003046968       12.0428136953       10.1933961825
 Ca         7.0761325613       12.0383266626       18.2353391581
  O         3.8421164620       12.0374838151        0.7049666069
  O         8.5618390793       12.0373018935        8.9286279067
  O         4.8788355322       12.0378883086        3.2475245953
  O         9.7050452919       12.0368345146       11.2383603970
  P         3.6387764795       12.0378567507        2.1964366328
  P         8.3255214445       12.0387110386       10.4761173102
 Ca         1.2270941552       12.0380383187        4.0843020361
 Ca         5.8841285802       12.0439375573       12.3441619435
 Ca         4.6866687670        6.7050010844        4.7206415474
 Ca         0.0085823978        6.8937321015       12.9886200453
 Ca        -0.0175422167       10.3305867215        7.4924918467
 Ca         4.7553196633       10.0904930009       15.7016871239
 Ca        -0.0176595080       13.7458655611        7.4926008299
 Ca         4.7555416936       13.9864073872       15.7016756703
 Ca         4.6867548879       10.4922128937        4.7205064388
 Ca         0.0084570379       10.3036267642       12.9886172653
  O         4.7177611921        7.9886453962       10.2114894658
  O        -0.1857525193        7.9829087647       17.9765697506
  H         4.6546483946        7.1623930666       10.2834879177
  H         0.1826159146        7.4042563762       18.9142026014
  O         4.6239571393       11.4603652975       10.2461339900
  O        -0.2956239393       11.3247722559       18.0829022554
  H         4.8066844253       10.6372478342       10.2415327936
  H         0.3741726399       10.6114396688       18.7243879747
  O         4.6452429661        5.7336597818       10.3008708459
  O        -0.3025496407        5.8789671625       18.0975221708
  H         4.7934096432        6.5352694956       10.1438836094
  H         0.3857989658        6.5816414614       18.7226739910
  O         4.7428742773        9.2246433688       10.3490132199
  O        -0.1919933580        9.2410922897       17.9275325761
  H         4.6418326357       10.0465475939       10.1448967914
  H         0.1911617026        9.7734805933       18.9325474257
  O        10.1987296696        7.3543419526        4.8422437431
  O        14.9131862456        7.3417174173       13.0394172715
  O        16.1873459079        7.3403308744        8.1319327403
  O        11.5241274223        7.2126600471       16.2464167161
  O        11.3015029749        7.3387940432        9.4961780068
  O        15.9621948880        7.2812946788       17.6811155456
  O        13.3590191463       10.7906213418        7.4638762012
  O        18.0643543091       10.7851135303       15.5547000819
  O        16.8034597778       10.6766935606        4.2176266105
  O        12.0943593895       10.7889392382       12.3172065753
  O        12.2112670680       10.7711301113        2.8037385975
  O        16.9607419858       10.7830343192       10.9514528412
  O        13.3582528740       13.2858456898        7.4613033963
  O        18.0641968850       13.2915902064       15.5544007586
  O        16.8034532763       13.3997794299        4.2177894462
  O        12.0925356866       13.2881419208       12.3200246087
  O        12.2119992205       13.3055777211        2.8039107509
  O        16.9635119887       13.2941067817       10.9523305060
  O        10.1986169172        9.8431083152        4.8415738500
  O        14.9131261211        9.8558600211       13.0384111944
  O        16.1856664798        9.8568491785        8.1343551573
  O        11.5238284761        9.9847310698       16.2470282109
  O        11.3048159597        9.8583825963        9.4972087034
  O        15.9621387543        9.9169373508       17.6810541051
  O        12.5136149044        8.5994059848        4.7514840568
  O        17.1795670909        8.5993675752       12.8913447754
  O        11.0618029474        8.5991804104        6.8850678847
  O        15.7687596324        8.5997138986       15.0576091083
  P        11.0410385403        8.5991962893        5.3220507454
  P        15.7222069888        8.5993103240       13.4472447771
 Ca        17.6764649197        8.5987756928        4.1204920485
 Ca        12.9022822625        8.5946570598       12.3061961742
  O        14.9294012250        8.5994468629        6.2111147825
  O        10.2560120701        8.5994119019       14.4776764083
  O        17.5378535520        8.5998522006        6.4141705069
  O        12.8029763423        8.5993082101       14.6024513973
  P        16.1549721579        8.5992067677        7.2086560576
  P        11.4691630126        8.5990812152       15.4737084727
 Ca        11.9043459351        8.5988359389        2.2168856909
 Ca        16.5119959212        8.5953825483       10.2746396767
  O        10.2909139145        8.5996490782       11.5496154147
  O        14.9976561637        8.5996713176       19.7754615179
  O         9.1387217662        8.5999869719        9.2418131827
  O        13.9484677284        8.5993377872       17.2462424650
  P        10.5282162780        8.5983434209        9.9903761979
  P        15.2010433837        8.5988790360       18.2671054060
 Ca        12.9858191541        8.5937620262        8.1531529153
 Ca        17.6413320407        8.5972080869       16.3674888113
  O        11.0858489407       12.0375649125        7.5680904625
  O        15.7498458454       12.0376702614       15.7599020744
  O        12.4732567070       12.0372176827        5.4204487703
  O        17.1796703473       12.0380351718       13.5801034230
  P        12.5453024810       12.0383369122        7.0195890003
  P        17.2205179654       12.0377799715       15.1415923318
 Ca        15.3895957659       12.0431672045        8.1317792757
 Ca        10.5289697005       12.0381523513       16.2941990674
  O        18.0286618070       12.0377308746        6.0186889711
  O        13.3342563302       12.0376280863       14.2776448550
  O        15.4776515062       12.0378490645        5.8861451520
  O        10.7335351015       12.0371895320       14.0393713239
  P        16.8189827967       12.0377747222        5.0162114518
  P        12.1169397616       12.0376939152       13.2558313694
 Ca        11.7211473982       12.0429242465       10.1933534815
 Ca        16.4992616938       12.0381777460       18.2357893703
  O        13.2660531748       12.0372939659        0.7049114195
  O        17.9865657616       12.0374365050        8.9282214472
  O        14.3027913939       12.0376544217        3.2472767670
  O         0.2826406301       12.0372373032       11.2386184926
  P        13.0628361544       12.0375137228        2.1966021753
  P        17.7477324934       12.0382862491       10.4765539446
 Ca        10.6514063269       12.0381905455        4.0846591294
 Ca        15.3095968238       12.0425058182       12.3472046314
 Ca        14.1105318340        6.7050380578        4.7216200096
 Ca         9.4343161549        6.8936702644       12.9885609941
 Ca         9.4080927278       10.3306427049        7.4925128622
 Ca        14.1797998306       10.0899357769       15.7013473098
 Ca         9.4079385295       13.7459771561        7.4925834641
 Ca        14.1798516440       13.9867460383       15.7012525769
 Ca        14.1106875537       10.4922218664        4.7215428803
 Ca         9.4341381399       10.3036001977       12.9887072559
  O        14.1084024534        7.9651400036       10.2496477164
  O         9.2274629222        7.9589236586       17.9303546947
  H        14.1323937950        7.1522184259       10.2592682350
  H         9.6126047060        7.4192877139       18.9365284798
  O        14.0950642700       11.4736607981       10.3086743140
  O         9.1202489257       11.3145393062       18.0950045318
  H        14.2083381870       10.6417312502       10.1806998340
  H         9.8094227858       10.6198641417       18.7231685980
  O        14.1235073858        5.7153606098       10.3480416278
  O         9.1117572004        5.8673656391       18.1135614698
  H        14.1607182016        6.5097509093       10.1361843488
  H         9.8098998548        6.5931745110       18.7042031220
  O        14.1959905815        9.2460626218       10.2900911154
  O         9.2436564498        9.2170469242       17.9766804627
  H        14.0526550958       10.0771451924       10.2051525006
  H         9.6042511520        9.7911342073       18.9129338884
  O         8.2013590492        6.7705703109       25.4739289934
  C         9.2765136204        7.2981625626       25.4730880083
  O        10.3435392192        7.8142480308       25.4083442362
     387
 i =       11, E =     -6917.6263781903
  O         0.7894555101        0.4847674018        4.8413323260
  O         5.4898620416        0.4678600414       13.0304342411
  O         6.7608630099        0.4673717995        8.1255587367
  O         2.1216395215        0.3520508975       16.2217908354
  O         1.8795436347        0.4668711930        9.4944786054
  O         6.5088372039        0.4166436057       17.6947980744
  O         3.9327833277        3.9189435485        7.4661059895
  O         8.6219269746        3.9156646874       15.5306602056
  O         7.3702298441        3.8182033425        4.2309628834
  O         2.6724319993        3.9136955941       12.3082443245
  O         2.7931217976        3.9078174431        2.7878743111
  O         7.5399153256        3.9109091485       10.9496920300
  O         3.9328862274        6.4006272366        7.4623909619
  O         8.6221826308        6.4026865334       15.5317890494
  O         7.3701554841        6.5001682816        4.2314824322
  O         2.6682739129        6.4072759350       12.3146720126
  O         2.7941866277        6.4106805441        2.7879568081
  O         7.5365985464        6.4090147317       10.9495491096
  O         0.7892561407        2.9546729132        4.8404239639
  O         5.4900997216        2.9712166328       13.0304643100
  O         6.7591580989        2.9707813517        8.1274052166
  O         2.1222737118        3.0879206988       16.2215529989
  O         1.8831911342        2.9715794987        9.4960585573
  O         6.5090300749        3.0230286793       17.6948937956
  O         3.0741449776        1.7204859313        4.7569197667
  O         7.7417873084        1.7200399613       12.8809477851
  O         1.6419557357        1.7202610106        6.8760898427
  O         6.3508405265        1.7207501385       15.0106548965
  P         1.6203840239        1.7201372387        5.3053777385
  P         6.3127025712        1.7223015016       13.4818955051
 Ca         8.2641073627        1.7198694875        4.1227872562
 Ca         3.4663634881        1.7152065908       12.3353223254
  O         5.5244633814        1.7204554589        6.2199122576
  O         0.8411672835        1.7203699818       14.4884094796
  O         8.0966742748        1.7208075796        6.4245131545
  O         3.3764239080        1.7200064784       14.5986233677
  P         6.7349485853        1.7220378347        7.1763854809
  P         2.0516906887        1.7201769455       15.4986358801
 Ca         2.5038258495        1.7199068693        2.2313929267
 Ca         7.1081489663        1.7162108462       10.2760267103
  O         0.8774407472        1.7206517803       11.5219404786
  O         5.5725576836        1.7206378423       19.7453956050
  O        18.5756037484        1.7212922203        9.2452099459
  O         4.5334443447        1.7201688450       17.2627824933
  P         1.0837853078        1.7206144730       10.0053561538
  P         5.7775596662        1.7200295989       18.2825035062
 Ca         3.5529579937        1.7146629322        8.1381987500
 Ca         8.1546917577        1.7129656853       16.2917259290
  O         1.6755554174        5.1585053759        7.5669532588
  O         6.3470622799        5.1586952883       15.7491254516
  O         3.0504564820        5.1575616612        5.4548665351
  O         7.7470469453        5.1594678400       13.5703182281
  P         3.1048135009        5.1581367082        7.0043674701
  P         7.7851920475        5.1586121050       15.1633229098
 Ca         5.9776113117        5.1629184593        8.1152327974
 Ca         1.0822813053        5.1590188080       16.2863032420
  O         8.5977475350        5.1587273295        6.0061494794
  O         3.8847389927        5.1584604228       14.2612200414
  O         6.0587576092        5.1587399007        5.8742726676
  O         1.3268872136        5.1572090066       14.0108409511
  P         7.3953301939        5.1588235804        5.0075331521
  P         2.6948507473        5.1584450240       13.3004952083
 Ca         2.2787539244        5.1665867738       10.2035285782
 Ca         7.0495553397        5.1583663276       18.2168530897
  O         3.8456003903        5.1580282139        0.7327113190
  O         8.5565019147        5.1589575779        8.9380519752
  O         4.8548659557        5.1585884040        3.2216407262
  O         9.6910107532        5.1590031834       11.2265556327
  P         3.6303034420        5.1586795869        2.1871672256
  P         8.3411124367        5.1546917893       10.4824131314
 Ca         1.2352671784        5.1592763134        4.0738226577
 Ca         5.8913527922        5.1618951246       12.3687681928
 Ca         4.6821385781       -0.1663055452        4.7186951418
 Ca         0.0094288343        0.0135560153       13.0054811185
 Ca        -0.0227653447        3.4501977486        7.4889018472
 Ca         4.7628315245        3.2195246069       15.7048770774
 Ca        -0.0228012890        6.8686122749        7.4890159952
 Ca         4.7628150212        7.0992722998       15.7051906968
 Ca         4.6822673826        3.6052969625        4.7188775318
 Ca         0.0091332317        3.4256831334       13.0055501197
  O         4.6576802104        1.0508266973       10.2338026268
  O        -0.2683634505        0.9939476632       17.8889411207
  H         4.7369363148        0.2955489193       10.2944322410
  H         0.2459726129        0.6292501140       19.0614354270
  O         4.8620958098        4.6143940004       10.3452183106
  O        -0.3477600998        4.4314436779       18.0240162996
  H         4.6928650173        3.7609497737       10.1056436355
  H         0.4868618219        3.8280139530       18.8045928941
  O         4.8944563918       12.6135973618       10.4819840611
  O        -0.3614813294       12.7294452734       18.0375281913
  H         4.6524316072       13.3949394211       10.0011382830
  H         0.4817909896       13.3940905353       18.7913760215
  O         4.7971718581        2.3709616470       10.3273464296
  O        -0.1404743344        2.4134816033       17.8900129202
  H         4.6332039354        3.1445812421       10.1967123418
  H         0.1887011639        2.8212574362       19.0495389550
  O        10.2127626217        0.4847257933        4.8409622913
  O        14.9150922754        0.4668071634       13.0329638909
  O        16.1890171349        0.4662367506        8.1206170204
  O        11.5441734193        0.3519107544       16.2223748681
  O        11.2996342119        0.4665313333        9.4946069567
  O        15.9310448534        0.4156562560       17.6949340750
  O        13.3556648637        3.9198573499        7.4616748229
  O        18.0470104779        3.9158508790       15.5307850767
  O        16.7945692070        3.8181020791        4.2304980261
  O        12.0952210158        3.9157279197       12.3093489106
  O        12.2170958530        3.9076097671        2.7874713047
  O        16.9630837629        3.9124475895       10.9493919537
  O        13.3571054218        6.3988920972        7.4636268635
  O        18.0470432383        6.4026698190       15.5309303817
  O        16.7944250210        6.5003346110        4.2309829906
  O        12.0902464037        6.4053416783       12.3153878469
  O        12.2183321708        6.4108337242        2.7874010558
  O        16.9646540201        6.4077280456       10.9500443872
  O        10.2125465036        2.9547968947        4.8400225397
  O        14.9163434903        2.9729412976       13.0348713045
  O        16.1847206541        2.9715366423        8.1253718510
  O        11.5454804679        3.0885037042       16.2223246116
  O        11.3006584255        2.9721653275        9.4949608404
  O        15.9353264354        3.0225641881       17.6952334973
  O        12.4978761885        1.7205120152        4.7557348889
  O        17.1679411277        1.7200722268       12.8819193697
  O        11.0640303411        1.7202165375        6.8750659221
  O        15.7754681659        1.7198894093       15.0121548501
  P        11.0452825577        1.7199935525        5.3072175602
  P        15.7341226920        1.7224980500       13.4792965207
 Ca        17.6873287475        1.7198334410        4.1240372340
 Ca        12.9003344793        1.7176686513       12.3182243815
  O        14.9492212109        1.7207463967        6.2180220672
  O        10.2634688566        1.7203139656       14.4887496530
  O        17.5227447712        1.7214050009        6.4233508309
  O        12.7996429065        1.7202329751       14.6007315374
  P        16.1572720564        1.7201098471        7.1794212960
  P        11.4776706623        1.7202628157       15.4974128412
 Ca        11.9273316351        1.7198658562        2.2319135601
 Ca        16.5088922405        1.7150624825       10.2767659646
  O        10.2986218357        1.7204250830       11.5223809797
  O        14.9963578805        1.7211743935       19.7454388108
  O         9.1469658349        1.7204629534        9.2454605138
  O        13.9575550406        1.7206000295       17.2637588275
  P        10.5130325692        1.7215986199       10.0049918424
  P        15.2009318234        1.7189644295       18.2821303250
 Ca        12.9876834442        1.7151257878        8.1561558183
 Ca        17.5766634889        1.7279418488       16.2904935042
  O        11.0980118560        5.1589043076        7.5663922760
  O        15.7719687153        5.1585240956       15.7492201283
  O        12.4739244962        5.1586326749        5.4530877461
  O        17.1728503655        5.1591209907       13.5712495699
  P        12.5311491459        5.1557744387        7.0063253820
  P        17.2084805450        5.1588084147       15.1627158209
 Ca        15.4024224241        5.1616465007        8.1132136510
 Ca        10.5092274930        5.1590650392       16.2835193494
  O        18.0226599471        5.1586785549        6.0059420138
  O        13.3084136650        5.1583136773       14.2621870300
  O        15.4835982878        5.1586897055        5.8724321030
  O        10.7486345793        5.1572921172       14.0121652354
  P        16.8181230364        5.1589010767        5.0079983785
  P        12.1197657219        5.1590787173       13.2980427391
 Ca        11.7027523765        5.1643187574       10.2034257897
 Ca        16.4757085425        5.1594251213       18.2175796012
  O        13.2695191217        5.1582575990        0.7326394321
  O        17.9823245168        5.1584847636        8.9374855038
  O        14.2787664457        5.1588408022        3.2209862914
  O         0.2707012380        5.1583131845       11.2266566419
  P        13.0545541222        5.1590559241        2.1875129267
  P        17.7616969673        5.1574077294       10.4829404372
 Ca        10.6600053233        5.1591960912        4.0745834141
 Ca        15.3169830417        5.1641218784       12.3731192404
 Ca        14.1056746655       -0.1663118141        4.7209629097
 Ca         9.4372991707        0.0138552997       13.0056716040
 Ca         9.4049291279        3.4501028893        7.4893705789
 Ca        14.1869685896        3.2193117167       15.7032029099
 Ca         9.4050081507        6.8684104124        7.4892316966
 Ca        14.1872461896        7.0997514470       15.7035428664
 Ca        14.1057819732        3.6052133558        4.7210725648
 Ca         9.4369273406        3.4256599769       13.0055235926
  O        14.1889786280        1.0132985569       10.1682894599
  O         9.2158432838        1.0228111195       17.9237281625
  H        14.0202567263        0.2970832993       10.3153042203
  H         9.6385233629        0.6207265179       19.0395480610
  O        14.1273705080        4.6299721829       10.1341051314
  O         9.0824936526        4.4597325500       18.0077993014
  H        14.1857769366        3.7413697264       10.3265023426
  H         9.8969302781        3.8091831915       18.8043141418
  O        14.1603947856       12.6379223129       10.3317206654
  O         9.0770313128       12.7632417741       18.0292706172
  H        14.2278551352       13.3905647374       10.0596837584
  H         9.9096081196       13.3701820774       18.7994383851
  O        14.1306360139        2.4122836883       10.4353868860
  O         9.2287713266        2.4485528006       17.8591451505
  H        14.0987780228        3.1596080455       10.0169497060
  H         9.6464335263        2.8087653838       19.0659259223
  O         0.7894668006        7.3639017991        4.8414047660
  O         5.4890611423        7.3469362422       13.0284580610
  O         6.7624258497        7.3458370581        8.1243939680
  O         2.1214244978        7.2310302075       16.2217445465
  O         1.8794747873        7.3466415026        9.4947999035
  O         6.5081637893        7.2951583110       17.6952815674
  O         3.9327396918       10.7965637079        7.4630624290
  O         8.6223657492       10.7945696093       15.5313001738
  O         7.3702353071       10.6971308371        4.2310866351
  O         2.6712423143       10.7924121503       12.3106960244
  O         2.7930023865       10.7868193534        2.7879529052
  O         7.5338473486       10.7901978532       10.9480067812
  O         3.9332944364       13.2790704514        7.4653864618
  O         8.6220197801       13.2817176373       15.5307577193
  O         7.3701612261       13.3790385310        4.2314389906
  O         2.6693387165       13.2853551202       12.3128264460
  O         2.7942706327       13.2896787282        2.7879034702
  O         7.5416027770       13.2879508034       10.9510014718
  O         0.7892462387        9.8337677648        4.8407866505
  O         5.4909355599        9.8509237315       13.0321446947
  O         6.7572263277        9.8498053593        8.1301153725
  O         2.1226717913        9.9668699090       16.2216063657
  O         1.8829563810        9.8497576346        9.4958773513
  O         6.5094344805        9.9019052545       17.6947394203
  O         3.0741615255        8.5995038915        4.7569345494
  O         7.7417474962        8.5990172252       12.8807781216
  O         1.6420476235        8.5990031123        6.8762743842
  O         6.3507612738        8.5988021524       15.0103564484
  P         1.6204258715        8.5989990479        5.3053647293
  P         6.3127816172        8.6025883475       13.4820184431
 Ca         8.2639582355        8.5987310411        4.1228025357
 Ca         3.4646822610        8.5959038058       12.3374262827
  O         5.5246847522        8.5997355342        6.2203219531
  O         0.8411495834        8.5993272005       14.4884298166
  O         8.0962845316        8.6009966100        6.4249970642
  O         3.3766417773        8.5991367319       14.5985067698
  P         6.7347579331        8.5990665888        7.1758786808
  P         2.0515658916        8.5998115200       15.4986973053
 Ca         2.5038430311        8.5988037940        2.2313052973
 Ca         7.1090426994        8.5936868596       10.2759978521
  O         0.8774282705        8.5995673718       11.5220478161
  O         5.5728775065        8.6002998715       19.7455688444
  O        18.5751463737        8.6002482547        9.2451491475
  O         4.5333879246        8.5991783996       17.2629654964
  P         1.0834807478        8.5997309795       10.0050910756
  P         5.7776170990        8.5991219267       18.2827113761
 Ca         3.5510208193        8.5913331588        8.1353390923
 Ca         8.1550450416        8.6053491750       16.2919815701
  O         1.6757071280       12.0378986998        7.5668939377
  O         6.3472654866       12.0374971845       15.7489832808
  O         3.0505852814       12.0374767510        5.4550648148
  O         7.7470462918       12.0379876638       13.5701953887
  P         3.1047420234       12.0348131598        7.0045301203
  P         7.7851659393       12.0381075100       15.1634814128
 Ca         5.9770680382       12.0435734271        8.1151008834
 Ca         1.0831671089       12.0380348496       16.2847013541
  O         8.5976949256       12.0375868169        6.0063014959
  O         3.8845776485       12.0376166569       14.2611178021
  O         6.0587482583       12.0378077311        5.8743898795
  O         1.3268335655       12.0368871336       14.0110539123
  P         7.3954114563       12.0381772719        5.0072822553
  P         2.6945454003       12.0360095154       13.3007732498
 Ca         2.2776078500       12.0416738630       10.2036312317
 Ca         7.0521263467       12.0386749300       18.2168776174
  O         3.8455888310       12.0372369776        0.7327027401
  O         8.5564178080       12.0369911686        8.9380799403
  O         4.8548461442       12.0377996962        3.2216700680
  O         9.6907607715       12.0359474914       11.2265173843
  P         3.6303202966       12.0379768386        2.1871646196
  P         8.3414058067       12.0393799099       10.4824169826
 Ca         1.2352200757       12.0381664476        4.0739448685
 Ca         5.8927474359       12.0446696364       12.3720914148
 Ca         4.6819946046        6.7127530337        4.7187000694
 Ca         0.0095590504        6.8927826341       13.0055628499
 Ca        -0.0228620771       10.3290713492        7.4889460831
 Ca         4.7626479942       10.0986096254       15.7047441883
 Ca        -0.0230592853       13.7475352856        7.4888972776
 Ca         4.7629819246       13.9786521974       15.7049937487
 Ca         4.6821120241       10.4841699553        4.7187925263
 Ca         0.0093076225       10.3046421371       13.0054525989
  O         4.7304732015        7.9375378231       10.1092214151
  O        -0.2027073153        7.9001055184       17.9175547216
  H         4.5726066027        7.1722720193       10.3729020493
  H         0.2115908732        7.4993902542       19.0435740185
  O         4.4542385801       11.4829053383       10.1885315011
  O        -0.3523315485       11.3418773644       18.0187385153
  H         4.9726720953       10.6211741900       10.2845403852
  H         0.4767232873       10.6880389538       18.8033352464
  O         4.4969409800        5.7703195791       10.3834125592
  O        -0.3570898243        5.8841844182       18.0412076682
  H         4.9244872306        6.5317264074       10.0129505346
  H         0.4912679119        6.4933077694       18.7924208339
  O         4.7899729137        9.2799241393       10.4914828589
  O        -0.2016582632        9.3255239748       17.8633460439
  H         4.5258059695       10.0158506586       10.0183040096
  H         0.2250050192        9.6890279897       19.0656095317
  O        10.2127761973        7.3637822163        4.8407380155
  O        14.9156008738        7.3459027795       13.0334843062
  O        16.1874543102        7.3451696062        8.1222645027
  O        11.5449240245        7.2301301299       16.2222317656
  O        11.2976464366        7.3452501424        9.4938173574
  O        15.9333249937        7.2953995157       17.6948824641
  O        13.3567165383       10.7989293270        7.4640863002
  O        18.0470603135       10.7945699864       15.5308377923
  O        16.7945414058       10.6969199206        4.2305177497
  O        12.0930113346       10.7935798296       12.3113458264
  O        12.2171093343       10.7866173394        2.7874044657
  O        16.9625610593       10.7917434099       10.9487716236
  O        13.3561868647       13.2780727297        7.4616518884
  O        18.0469419053       13.2818042138       15.5309258046
  O        16.7945181857       13.3791927256        4.2309269031
  O        12.0925037601       13.2842951176       12.3128573168
  O        12.2182003770       13.2899409861        2.7874855864
  O        16.9655751602       13.2864916920       10.9505786861
  O        10.2125967505        9.8337948189        4.8400467170
  O        14.9162084840        9.8512568020       13.0347178881
  O        16.1862306869        9.8512692424        8.1234832317
  O        11.5441874237        9.9668297962       16.2229942070
  O        11.3024290529        9.8507864164        9.4957152878
  O        15.9329505420        9.9023468182       17.6949800659
  O        12.4979207877        8.5995018138        4.7558622480
  O        17.1681375929        8.5990831032       12.8819333285
  O        11.0639774650        8.5991798069        6.8750227439
  O        15.7755582411        8.5995230054       15.0124140628
  P        11.0451984284        8.5991735725        5.3069747372
  P        15.7338875357        8.6016438837       13.4792507342
 Ca        17.6875256974        8.5987196908        4.1238632239
 Ca        12.9013540298        8.5949926094       12.3172326563
  O        14.9493394505        8.5993844307        6.2179447917
  O        10.2631948810        8.5994933365       14.4888437579
  O        17.5226940346        8.5999405744        6.4235571110
  O        12.7995251647        8.5992926475       14.6007947578
  P        16.1572151547        8.6010742122        7.1792433767
  P        11.4777802150        8.5992263527       15.4973878685
 Ca        11.9274200568        8.5988577504        2.2320090515
 Ca        16.5092424011        8.5964671855       10.2766564938
  O        10.2984013376        8.5997231302       11.5222903116
  O        14.9963531827        8.5998205974       19.7453533252
  O         9.1467575295        8.6005036228        9.2455412730
  O        13.9575140268        8.5991556210       17.2636424687
  P        10.5133589397        8.5989996089       10.0050076728
  P        15.2010733019        8.5995235909       18.2821118515
 Ca        12.9883896841        8.5934408383        8.1568693092
 Ca        17.5765786445        8.5925885863       16.2912635233
  O        11.0978302680       12.0375641879        7.5664344377
  O        15.7720984798       12.0376133917       15.7492579738
  O        12.4739408001       12.0368793818        5.4531329236
  O        17.1726816421       12.0381272073       13.5711226394
  P        12.5311437776       12.0371367756        7.0062021851
  P        17.2078963293       12.0378963325       15.1628715693
 Ca        15.4024260812       12.0436815028        8.1128953676
 Ca        10.5082347164       12.0381756469       16.2852170584
  O        18.0226514995       12.0376426684        6.0058482755
  O        13.3083088189       12.0377648511       14.2620030128
  O        15.4834375612       12.0378111080        5.8727404902
  O        10.7487278098       12.0371078046       14.0118388537
  P        16.8183283101       12.0380819971        5.0079867370
  P        12.1201598661       12.0355515156       13.2983324508
 Ca        11.7033086068       12.0424415089       10.2033604479
 Ca        16.4740604612       12.0379712869       18.2172412190
  O        13.2695270744       12.0370101024        0.7326185706
  O        17.9823789858       12.0374162077        8.9374057327
  O        14.2788330912       12.0375460146        3.2210590580
  O         0.2707767891       12.0368827749       11.2266742893
  P        13.0544696099       12.0376096707        2.1874718649
  P        17.7618682308       12.0372760601       10.4831227170
 Ca        10.6600864823       12.0382544869        4.0747006247
 Ca        15.3157154613       12.0418658790       12.3714652657
 Ca        14.1056577055        6.7126778870        4.7209526149
 Ca         9.4379360786        6.8925586443       13.0058692264
 Ca         9.4053954425       10.3292162634        7.4889279030
 Ca        14.1874016693       10.0978844963       15.7032469611
 Ca         9.4049858195       13.7476894818        7.4889525630
 Ca        14.1873847097       13.9790693111       15.7035612832
 Ca        14.1057814791       10.4842608751        4.7211100315
 Ca         9.4376722955       10.3046045829       13.0059369410
  O        14.0591359287        7.8971252179       10.2196069410
  O         9.2128146390        7.8707821347       17.8696230114
  H        14.1328081714        7.1683556129       10.3112536582
  H         9.6444636901        7.5047208333       19.0697516700
  O        14.0090294604       11.4595601022       10.3876662856
  O         9.0651447043       11.3113373658       18.0391806255
  H        14.3520359058       10.6300443040       10.1055661720
  H         9.9149104300       10.7068475884       18.7945356546
  O        14.1017990351        5.7827784622       10.5424928473
  O         9.0526031848        5.8545739652       18.0572511479
  H        14.1922396420        6.4716855467        9.9762687383
  H         9.9169559825        6.5164622172       18.7746280796
  O        14.2887774038        9.2916843530       10.3358650592
  O         9.2312693799        9.2991392096       17.9147960530
  H        13.9092543333       10.0618652740       10.1836811972
  H         9.6329178351        9.6979946189       19.0428814740
  O         8.0107733050        6.6839463840       25.4815475900
  C         9.2664529388        7.2926462313       25.4650304698
  O        10.5419145582        7.9050686134       25.4003958275
     387
 i =       12, E =     -6917.9906234692
  O         0.8174998255        0.4991010609        4.8344930147
  O         5.4959600816        0.4785591250       13.0158926577
  O         6.7567644923        0.4788388317        8.1036502232
  O         2.1672374230        0.3841002917       16.1752282376
  O         1.8770154199        0.4804484084        9.4907712347
  O         6.4512133705        0.4408504073       17.7201050162
  O         3.9283353882        3.9351885809        7.4699344993
  O         8.5847710541        3.9295483998       15.4747990557
  O         7.3521225845        3.8538861821        4.2551258560
  O         2.6757831001        3.9274931468       12.2935670781
  O         2.8015223383        3.9339654508        2.7542848608
  O         7.5467511352        3.9255858965       10.9442315589
  O         3.9289844215        6.3853617826        7.4635676859
  O         8.5856804252        6.3882087766       15.4785183014
  O         7.3520071399        6.4646714241        4.2560687909
  O         2.6678060258        6.3975293670       12.3067461651
  O         2.8032248441        6.3847679332        2.7543673188
  O         7.5312014600        6.3956897554       10.9416766163
  O         0.8173556369        2.9404473247        4.8338122909
  O         5.4972097513        2.9605350962       13.0214903165
  O         6.7558844404        2.9580103373        8.1038404691
  O         2.1689358146        3.0592398103       16.1750048287
  O         1.8845563813        2.9577598397        9.4937638697
  O         6.4501339663        2.9965710835       17.7204272102
  O         3.0477085601        1.7206680975        4.7616140037
  O         7.7196555412        1.7192369705       12.8579827908
  O         1.6473117665        1.7203832261        6.8513917454
  O         6.3629025261        1.7205032656       14.9274407338
  P         1.6268775177        1.7202019443        5.2843082117
  P         6.3305960920        1.7268135377       13.5227297986
 Ca         8.2882114614        1.7197680722        4.1300053232
 Ca         3.4527456731        1.7159154904       12.3819652512
  O         5.5571909764        1.7203645991        6.2260378987
  O         0.8558407618        1.7210153888       14.5098310135
  O         8.0715653895        1.7210824791        6.4367130204
  O         3.3750670982        1.7200894377       14.5901016222
  P         6.7410820637        1.7249450756        7.1316221633
  P         2.0692641698        1.7180252560       15.5409761288
 Ca         2.5566699007        1.7198920076        2.2643929709
 Ca         7.1273939221        1.7196073522       10.2825815877
  O         0.8936215031        1.7211042015       11.4757455934
  O         5.5665043525        1.7207739113       19.7032492184
  O        18.5917874499        1.7226847463        9.2480758335
  O         4.5474790478        1.7198198661       17.2984795831
  P         1.0578700763        1.7203532171       10.0259188632
  P         5.7740661079        1.7215882755       18.2962956965
 Ca         3.5445984862        1.7137662537        8.1281819310
 Ca         8.0219271729        1.7033823079       16.1352494203
  O         1.6954120589        5.1584953344        7.5659592702
  O         6.3837764423        5.1588180098       15.7292565849
  O         3.0516263107        5.1563646111        5.5127702320
  O         7.7301818557        5.1602510238       13.5540140488
  P         3.0807027929        5.1568767953        6.9887979767
  P         7.7649726580        5.1581584933       15.1883639111
 Ca         6.0116063748        5.1586250580        8.0686333655
 Ca         1.0373967504        5.1591440911       16.2685762210
  O         8.5876740359        5.1587191184        5.9793868986
  O         3.8402131368        5.1583819306       14.2385649646
  O         6.0656459719        5.1585365445        5.8478096381
  O         1.3501104874        5.1552820340       13.9604545390
  P         7.3933407465        5.1584217506        4.9972769763
  P         2.6979606777        5.1577274942       13.3618088906
 Ca         2.2224568325        5.1684806348       10.2291050527
 Ca         6.9857180769        5.1560206194       18.1806056421
  O         3.8560293204        5.1573549362        0.7720407069
  O         8.5465562668        5.1601323072        8.9515866757
  O         4.8090074323        5.1584441379        3.1629095923
  O         9.6681612247        5.1608085182       11.2062836194
  P         3.6133504155        5.1583640357        2.1856391327
  P         8.3631389657        5.1464084231       10.4960961407
 Ca         1.2522074083        5.1592262895        4.0523714497
 Ca         5.9103106852        5.1563872026       12.4308913863
 Ca         4.6731886179       -0.1461034106        4.7162092713
 Ca         0.0111097657        0.0112935280       13.0452385431
 Ca        -0.0340096055        3.4469102342        7.4839347942
 Ca         4.7767908820        3.2408234084       15.7144559365
 Ca        -0.0341027037        6.8718169277        7.4839780809
 Ca         4.7765303641        7.0781590383       15.7161330269
 Ca         4.6733230513        3.5847717002        4.7170237727
 Ca         0.0107898270        3.4268498727       13.0445837557
  O         4.5217334794        1.0152983894       10.1407213106
  O        -0.3512394449        0.8459614776       17.7835165845
  H         4.8177896984        0.1624064926       10.4456474070
  H         0.3431420686        0.7999120854       19.3114354270
  O         5.1120958098        4.6680231328       10.4610268076
  O        -0.4467764195        4.4044483205       17.9021855859
  H         4.6493963542        3.8269850171        9.9095198288
  H         0.6976023137        4.0120354922       18.9685768460
  O         5.1444563918       12.6392855591       10.7319840611
  O        -0.4806079358       12.7282176134       17.9103759923
  H         4.5422662309       13.2837388887        9.7511382830
  H         0.7019102111       13.2392955100       18.9627299467
  O         4.9725659958        2.4086118273       10.4628458862
  O        -0.1165149758        2.5500950793       17.7451446081
  H         4.4752869579        3.1472461066       10.1499577711
  H         0.2376381897        2.6280855689       19.2995389550
  O        10.2400826026        0.4993806682        4.8334628136
  O        14.9215832812        0.4769234618       13.0207450343
  O        16.1910165232        0.4759976773        8.0924589291
  O        11.5882846168        0.3821271622       16.1769728463
  O        11.2947587791        0.4796710768        9.4909306918
  O        15.8697196006        0.4410332880       17.7205457252
  O        13.3494578711        3.9341417176        7.4566617942
  O        18.0119933307        3.9308704544       15.4771720298
  O        16.7769069507        3.8536808868        4.2540261856
  O        12.0978470798        3.9303956107       12.2965391127
  O        12.2256182705        3.9334578015        2.7531661165
  O        16.9660796552        3.9278335030       10.9435921291
  O        13.3539640523        6.3831585709        7.4677027615
  O        18.0122506582        6.3875194076       15.4786133441
  O        16.7768809321        6.4648976696        4.2548556983
  O        12.0864783584        6.3943799360       12.3093640376
  O        12.2274010086        6.3852301969        2.7533095166
  O        16.9663908279        6.3944639168       10.9438660828
  O        10.2399693703        2.9402597361        4.8329025503
  O        14.9256018204        2.9649032577       13.0298056287
  O        16.1816257729        2.9588672025        8.1017898134
  O        11.5920917638        3.0585102286       16.1755075526
  O        11.2945058764        2.9580729768        9.4909707968
  O        15.8805574825        2.9978545553       17.7214877603
  O        12.4710089715        1.7207154860        4.7589622617
  O        17.1472546111        1.7198935251       12.8602284168
  O        11.0681944740        1.7201192304        6.8505681948
  O        15.7878353019        1.7193018072       14.9287237556
  P        11.0525772548        1.7199871163        5.2869944311
  P        15.7515348060        1.7260375589       13.5205538356
 Ca        17.7105628268        1.7197648312        4.1325271956
 Ca        12.8944782638        1.7205076358       12.3509962417
  O        14.9836555996        1.7212176434        6.2225996962
  O        10.2764191791        1.7199896928       14.5109083444
  O        17.4989243617        1.7232702794        6.4350142410
  O        12.7984574363        1.7201738879       14.5930613947
  P        16.1631717256        1.7195898830        7.1345879629
  P        11.4960623648        1.7218006647       15.5389975562
 Ca        11.9794126254        1.7196414835        2.2657255230
 Ca        16.5013376823        1.7135900610       10.2840225846
  O        10.3120874797        1.7202156128       11.4758966330
  O        14.9904793401        1.7225367361       19.7030234182
  O         9.1601744371        1.7205298763        9.2491358205
  O        13.9716977283        1.7219454959       17.3004725845
  P        10.4880911358        1.7243492225       10.0248345695
  P        15.1967626767        1.7154983548       18.2960116979
 Ca        12.9898065983        1.7128773307        8.1641724289
 Ca        17.4409913796        1.7404317357       16.1311369228
  O        11.1165577870        5.1596465303        7.5639869973
  O        15.8105110546        5.1583816091       15.7303575342
  O        12.4746046048        5.1594654342        5.5095719808
  O        17.1589183686        5.1596490929       13.5575067054
  P        12.5086004589        5.1493958887        6.9925499874
  P        17.1863849033        5.1587211225       15.1859639028
 Ca        15.4339116936        5.1560166533        8.0691073007
 Ca        10.4656256558        5.1594028853       16.2655049967
  O        18.0138402965        5.1586091673        5.9788404495
  O        13.2639557672        5.1578317157       14.2409958200
  O        15.4913341611        5.1583916853        5.8431957538
  O        10.7708508442        5.1551728924       13.9619754868
  P        16.8148818954        5.1586195473        4.9977633302
  P        12.1217616352        5.1598473578       13.3577099256
 Ca        11.6613375577        5.1646355070       10.2296102733
 Ca        16.4109952031        5.1588615605       18.1813179602
  O        13.2798935864        5.1576895558        0.7720474411
  O        17.9746186244        5.1586498371        8.9512151339
  O        14.2328569571        5.1587496538        3.1614614898
  O         0.2512021694        5.1583782191       11.2058421835
  P        13.0379600025        5.1587351838        2.1861270940
  P        17.7825319408        5.1543136363       10.4964220520
 Ca        10.6781992407        5.1593157176        4.0544047987
 Ca        15.3366963005        5.1624329612       12.4382575990
 Ca        14.0957376221       -0.1466750965        4.7218833462
 Ca         9.4444529641        0.0126811342       13.0454873905
 Ca         9.3986665068        3.4467694293        7.4853596998
 Ca        14.1999432793        3.2394838443       15.7101608800
 Ca         9.3991092734        6.8713777704        7.4847751132
 Ca        14.2003640879        7.0800297398       15.7112835442
 Ca        14.0958828763        3.5853896114        4.7228115353
 Ca         9.4432193275        3.4274482932       13.0454139601
  O        14.3350341172        0.9682487638        9.9469908830
  O         9.1786639138        0.8710160355       17.8198156916
  H        13.7894008638        0.2006672166       10.5189803588
  H         9.7045956641        0.8262832025       19.2895480610
  O        14.1183239690        4.7285000673        9.8841051314
  O         8.9806966159        4.4579773303       17.8667737201
  H        14.2689673334        3.7069728653       10.5709720833
  H        10.1051231747        3.9662236915       18.9830754135
  O        14.2190915717       12.6773437461       10.4969636206
  O         8.9774879490       12.7923939093       17.9060111364
  H        14.3713927407       13.4340627015        9.8096837584
  H        10.1242609981       13.1798165856       18.9563549284
  O        14.1231778687        2.5404453071       10.6853868860
  O         9.2180957392        2.5958285606       17.7237306415
  H        14.0292117730        3.1122074200        9.7669497060
  H         9.7255828413        2.6406342939       19.3159259223
  O         0.8176357956        7.3786407623        4.8346657562
  O         5.4935751989        7.3587612354       13.0099469119
  O         6.7611472010        7.3566871683        8.1007557867
  O         2.1668575406        7.2612397936       16.1757232565
  O         1.8776343103        7.3618922352        9.4919792745
  O         6.4483155463        7.3214866911       17.7206666477
  O         3.9280256196       10.8091522776        7.4604661278
  O         8.5867115008       10.8087398356       15.4786581544
  O         7.3519503864       10.7324625905        4.2553728493
  O         2.6726809442       10.8042328018       12.3007159812
  O         2.8012981437       10.8127555669        2.7543980614
  O         7.5281839811       10.8053491884       10.9389209552
  O         3.9302270888       13.2621446995        7.4721076278
  O         8.5861856147       13.2667830568       15.4781151012
  O         7.3520260044       13.3430546599        4.2561172210
  O         2.6719113518       13.2730569641       12.3000627478
  O         2.8033482604       13.2634140108        2.7543684789
  O         7.5468411841       13.2744720936       10.9463967005
  O         0.8172619245        9.8194392730        4.8342188352
  O         5.4992588793        9.8416144444       13.0256804163
  O         6.7503942829        9.8371270034        8.1116563774
  O         2.1701156723        9.9356610361       16.1739809597
  O         1.8843787733        9.8339199235        9.4931523848
  O         6.4521128177        9.8773523542       17.7199786876
  O         3.0476835557        8.5997953259        4.7616960066
  O         7.7188541480        8.5984760104       12.8572250758
  O         1.6474961796        8.5988143177        6.8521170347
  O         6.3626320024        8.5972333994       14.9262968769
  P         1.6269506401        8.5987167113        5.2836052627
  P         6.3314965214        8.6085368260       13.5236571400
 Ca         8.2881941731        8.5985921699        4.1293229063
 Ca         3.4437665166        8.5994852510       12.3942593283
  O         5.5578830657        8.6003703154        6.2272618310
  O         0.8559257282        8.5989824038       14.5098584240
  O         8.0704591908        8.6033024593        6.4383210359
  O         3.3755916858        8.5988448013       14.5894193291
  P         6.7405421968        8.5981183254        7.1297415014
  P         2.0687715977        8.6021886601       15.5416434867
 Ca         2.5567796842        8.5986106003        2.2642928452
 Ca         7.1330759807        8.5926642542       10.2819056270
  O         0.8937946336        8.5996774910       11.4756764640
  O         5.5667591418        8.6015406901       19.7035500354
  O        18.5907236095        8.6016055257        9.2480634138
  O         4.5472609620        8.5995653547       17.2984968266
  P         1.0564236844        8.6000912297       10.0253744563
  P         5.7745028047        8.5974605184       18.2966495636
 Ca         3.5365736210        8.5861226654        8.1148222801
 Ca         8.0228443149        8.6144936716       16.1359642689
  O         1.6958888911       12.0381884868        7.5657426987
  O         6.3854604457       12.0371905731       15.7293644056
  O         3.0519135857       12.0379235014        5.5132677361
  O         7.7307698043       12.0381182788       13.5551659764
  P         3.0804269938       12.0299167359        6.9894535289
  P         7.7625086776       12.0385885592       15.1870535712
 Ca         6.0094785499       12.0439269063        8.0690608211
 Ca         1.0377200639       12.0385550347       16.2681074758
  O         8.5876203753       12.0372399028        5.9799085190
  O         3.8406995920       12.0375173960       14.2386579184
  O         6.0658986514       12.0375610203        5.8482084014
  O         1.3502133628       12.0362510434       13.9603674751
  P         7.3932090854       12.0388204455        4.9967806194
  P         2.6965954040       12.0337004530       13.3624471787
 Ca         2.2145463008       12.0413184161       10.2308558212
 Ca         6.9871591892       12.0397423121       18.1806232663
  O         3.8560013330       12.0366154509        0.7720627907
  O         8.5462053974       12.0358755730        8.9517641813
  O         4.8089090123       12.0375494056        3.1629398388
  O         9.6673759199       12.0330112590       11.2064069409
  P         3.6134280947       12.0381633319        2.1856261336
  P         8.3638794279       12.0430894400       10.4957763787
 Ca         1.2521347109       12.0384852379        4.0525035035
 Ca         5.9173498868       12.0442822538       12.4485943016
 Ca         4.6728036929        6.7323166876        4.7164801124
 Ca         0.0117969835        6.8912328376       13.0449482932
 Ca        -0.0343904852       10.3261109843        7.4842412316
 Ca         4.7755445404       10.1201376322       15.7144526050
 Ca        -0.0347954631       13.7511419294        7.4842018580
 Ca         4.7761077159       13.9581044129       15.7151969575
 Ca         4.6729451849       10.4638969991        4.7169848201
 Ca         0.0108982786       10.3068836769       13.0451704291
  O         4.7848133415        7.8441180356        9.8592214151
  O        -0.2324487190        7.7495734658       17.8094769360
  H         4.3529918351        7.1414392950       10.6229020493
  H         0.2761155652        7.7015262178       19.2935740185
  O         4.2042385801       11.5039304089       10.0392549837
  O        -0.4631303851       11.3419693691       17.8870007425
  H         5.2226720953       10.6256379003       10.3954418727
  H         0.6880861009       10.8456755580       18.9807359456
  O         4.2469409800        5.9103751233       10.5618254157
  O        -0.4625156181        5.9155191548       17.9228136177
  H         5.1744872306        6.4739037609        9.7629505346
  H         0.7079173794        6.3052674124       18.9462204109
  O         4.9054995129        9.4655870599       10.7414828589
  O        -0.2202694791        9.4722808780       17.7304530330
  H         4.2758059695        9.9456218360        9.7683040096
  H         0.3055152065        9.5202060080       19.3156095317
  O        10.2402607703        7.3786545153        4.8336648124
  O        14.9233222129        7.3561775647       13.0216956389
  O        16.1861414477        7.3558207173        8.0981806998
  O        11.5908428368        7.2609425853       16.1755334746
  O        11.2883921451        7.3583890688        9.4887474812
  O        15.8761408092        7.3192158774       17.7206352155
  O        13.3523871210       10.8146091280        7.4645878431
  O        18.0112868872       10.8082344232       15.4757009665
  O        16.7769037219       10.7322789531        4.2540827563
  O        12.0897454978       10.8056083749       12.3035854619
  O        12.2254787100       10.8122034833        2.7533962484
  O        16.9641415748       10.8071174534       10.9412638985
  O        13.3515425773       13.2620885324        7.4619571628
  O        18.0112379893       13.2671275185       15.4765600719
  O        16.7768602357       13.3432330324        4.2549571004
  O        12.0935184409       13.2727530269       12.3008168538
  O        12.2274453617       13.2640282500        2.7532635921
  O        16.9696872537       13.2723726880       10.9453870658
  O        10.2399190360        9.8193326324        4.8329961943
  O        14.9250018501        9.8411545825       13.0294784888
  O        16.1859471476        9.8406061865        8.0966986935
  O        11.5885952440        9.9367875805       16.1774160205
  O        11.2995981121        9.8363202924        9.4928559501
  O        15.8740610215        9.8756004366       17.7210416110
  O        12.4711401022        8.5997779366        4.7592351500
  O        17.1475917525        8.5982887732       12.8602168499
  O        11.0681305195        8.5992757640        6.8505554752
  O        15.7883627172        8.5987501910       14.9294887542
  P        11.0521335171        8.5990124647        5.2867287712
  P        15.7508448525        8.6066933185       13.5202779340
 Ca        17.7106559943        8.5985500009        4.1322541624
 Ca        12.8987967505        8.5955130588       12.3460705558
  O        14.9837468209        8.5994044084        6.2228603711
  O        10.2758021527        8.6001682851       14.5110596826
  O        17.4985174502        8.6002284168        6.4356792407
  O        12.7979055170        8.5995487486       14.5932455367
  P        16.1630175096        8.6038087050        7.1338647058
  P        11.4965529091        8.5977197696       15.5391681112
 Ca        11.9794904913        8.5988591451        2.2656739289
 Ca        16.5069409300        8.5986621043       10.2834788316
  O        10.3112665873        8.6002914159       11.4754786905
  O        14.9904077161        8.5999328965       19.7030045856
  O         9.1591703174        8.6024175966        9.2495239970
  O        13.9715127517        8.5984505453       17.3003217208
  P        10.4894815946        8.5979439390       10.0248828039
  P        15.1972471008        8.6022827167       18.2957916921
 Ca        12.9918701237        8.5911035082        8.1657102037
 Ca        17.4409440633        8.5839857281       16.1335169978
  O        11.1162963733       12.0373659096        7.5641941542
  O        15.8098382750       12.0374108317       15.7298047363
  O        12.4745633269       12.0359116347        5.5097302667
  O        17.1584065137       12.0382553384       13.5556846206
  P        12.5080981978       12.0356704361        6.9917461169
  P        17.1869500882       12.0384505847       15.1877728997
 Ca        15.4337507350       12.0456564145        8.0691763703
 Ca        10.4656567259       12.0382375580       16.2665721120
  O        18.0137763183       12.0373660768        5.9785102746
  O        13.2631532125       12.0380566050       14.2406913904
  O        15.4909472991       12.0376713913        5.8445541837
  O        10.7703001229       12.0370232523       13.9619731114
  P        16.8155319572       12.0385758418        4.9976714067
  P        12.1238815780       12.0311290018       13.3578791947
 Ca        11.6605386229       12.0416667673       10.2297806440
 Ca        16.4095576974       12.0375399633       18.1810635608
  O        13.2799252278       12.0362856437        0.7720290711
  O        17.9745840938       12.0370470873        8.9505164535
  O        14.2330319071       12.0372516420        3.1617075539
  O         0.2513466166       12.0354760635       11.2057530292
  P        13.0377769989       12.0378131269        2.1860137977
  P        17.7832621130       12.0372166535       10.4977297310
 Ca        10.6782865355       12.0384126318        4.0541913123
 Ca        15.3295225154       12.0404963720       12.4285566425
 Ca        14.0959092041        6.7319148355        4.7215905503
 Ca         9.4462256504        6.8900415759       13.0467412815
 Ca         9.4000046039       10.3263137489        7.4841078457
 Ca        14.2015712063       10.1191684694       15.7103951846
 Ca         9.3987481208       13.7515069133        7.4842774417
 Ca        14.2014213637       13.9584254137       15.7117226363
 Ca        14.0959476928       10.4641791518        4.7221284325
 Ca         9.4460043264       10.3061719927       13.0462458051
  O        13.8990752830        7.9030540371       10.0943864593
  O         9.1820703848        7.7160476287       17.7426984175
  H        14.1622365469        7.0098140895       10.4924650037
  H         9.7223607496        7.6768704675       19.3197516700
  O        13.7757094127       11.3820604697       10.5697703736
  O         8.9586213008       11.2840689959       17.9231690586
  H        14.6020359058       10.6073099160        9.9296029654
  H        10.1309911408       10.8925330180       18.9503831226
  O        14.0468035719        5.9297492829       10.7924928473
  O         8.9331980341        5.8623851933       17.9402735144
  H        14.2651700637        6.3308139614        9.7262687383
  H        10.1381490389        6.3578311410       18.9351278597
  O        14.5387774038        9.4374456379       10.4496333110
  O         9.2135585369        9.4494278380       17.8020138525
  H        13.6592543333       10.0713253059       10.1337484202
  H         9.6953854396        9.4992017832       19.2928814740
  O         7.7607733050        6.5379059383       25.4957471496
  C         9.2502080604        7.2831290940       25.4450391193
  O        10.7919145582        8.0574064823       25.3880125129
     387
 i =       13, E =     -6919.1653477207
  O         0.8126795688        0.4862635111        4.8303449635
  O         5.5037390033        0.4834463619       13.0237450583
  O         6.7528243097        0.4808784419        8.1014124560
  O         2.1542616291        0.3692272965       16.2036451715
  O         1.8734168561        0.4818632681        9.4967043218
  O         6.4762142053        0.4307013440       17.7065899571
  O         3.9258666591        3.9285563155        7.4657849239
  O         8.5898338539        3.9114419775       15.4881646883
  O         7.3593411910        3.8405119535        4.2303234014
  O         2.6794688391        3.9300475866       12.3080271989
  O         2.7920390646        3.9147145532        2.7603224403
  O         7.5474523775        3.9157145878       10.9437127258
  O         3.9228869506        6.3840670732        7.4536159195
  O         8.5904010952        6.4047819163       15.4920288508
  O         7.3592286173        6.4774426187        4.2312905903
  O         2.6659475578        6.3950153471       12.3264037805
  O         2.7937537019        6.4039803292        2.7603188545
  O         7.5338167731        6.3954390732       10.9382623228
  O         0.8124578344        2.9534644156        4.8297858202
  O         5.5044189467        2.9596723004       13.0320885693
  O         6.7512677136        2.9590050662        8.1026665911
  O         2.1568286079        3.0712573255       16.2013218263
  O         1.8870358129        2.9600184140        9.5001473324
  O         6.4760008844        3.0075926256       17.7067167762
  O         3.0637539286        1.7207252493        4.7468033851
  O         7.7281463752        1.7193391763       12.8653046598
  O         1.6411265856        1.7205914821        6.8470511306
  O         6.3484285152        1.7198669795       15.0081632283
  P         1.6182629300        1.7199465609        5.3142852220
  P         6.3096029425        1.7255934322       13.4204537811
 Ca         8.2772536819        1.7197809943        4.1300389692
 Ca         3.4536575108        1.7152241282       12.3718164042
  O         5.5342862172        1.7207403471        6.2085076694
  O         0.8445133230        1.7212320158       14.5004743607
  O         8.0947586601        1.7213048801        6.4177214206
  O         3.3810594231        1.7201878613       14.5909766546
  P         6.7386946149        1.7213437115        7.1846213252
  P         2.0645181383        1.7209933367       15.4912113751
 Ca         2.5383702076        1.7198729172        2.2514460096
 Ca         7.1297833678        1.7188882281       10.2862850664
  O         0.8857430935        1.7220192889       11.5164723952
  O         5.5643222291        1.7206423734       19.7351023610
  O        18.5797972221        1.7242246836        9.2379488835
  O         4.5225649445        1.7195972922       17.3055825863
  P         1.0851137071        1.7151754981        9.9867454941
  P         5.7638850692        1.7208681322       18.2588397807
 Ca         3.5437657879        1.7107831074        8.1322593805
 Ca         8.0662291498        1.7052367182       16.1623129351
  O         1.6772899612        5.1574789814        7.5688486150
  O         6.3560867853        5.1586963933       15.7425726242
  O         3.0556577450        5.1546665772        5.4587780441
  O         7.7432614151        5.1598856643       13.5703470474
  P         3.1051165418        5.1642104174        7.0304133101
  P         7.7843948889        5.1594415770       15.1358120333
 Ca         6.0087233148        5.1600289460        8.0856612348
 Ca         1.0620980481        5.1596309593       16.2841953191
  O         8.6005024762        5.1584508651        5.9886896185
  O         3.8861876900        5.1577735813       14.2701389639
  O         6.0573858481        5.1580373028        5.8469736443
  O         1.3180939501        5.1540855601       13.9891244472
  P         7.3896471897        5.1591801310        5.0270830525
  P         2.6870401682        5.1611311086       13.2718518815
 Ca         2.2260792405        5.1666633421       10.2267357429
 Ca         6.9724117261        5.1546460120       18.2067326543
  O         3.8566056326        5.1573592227        0.7504544695
  O         8.5490782690        5.1592596813        8.9421855903
  O         4.8399988174        5.1583121254        3.1573007689
  O         9.6908081869        5.1610918724       11.2257245920
  P         3.6189298531        5.1585242884        2.2086005660
  P         8.3294130013        5.1548387334       10.4873938323
 Ca         1.2363155330        5.1592334751        4.0669859787
 Ca         5.9023333948        5.1597179929       12.4273465142
 Ca         4.6792456554       -0.1238026283        4.7327209214
 Ca         0.0108639599        0.0109178886       13.0364587107
 Ca        -0.0300705101        3.4476022347        7.4946981814
 Ca         4.7634605542        3.2735224298       15.7118350952
 Ca        -0.0293735021        6.8712861935        7.4952773398
 Ca         4.7632097568        7.0457979366       15.7128657874
 Ca         4.6795281211        3.5623749228        4.7328849231
 Ca         0.0102311146        3.4265084896       13.0362250621
  O         4.5017453195        0.9809951872       10.1128552825
  O        -0.3005408288        0.9075811165       17.8605368951
  H         4.8236184050        0.1625728529       10.4576537616
  H         0.3102255992        0.7379410244       19.2114261980
  O         5.0765453745        4.6361619719       10.4222919668
  O        -0.3854629653        4.4215644957       17.9726866001
  H         4.6789051648        3.8868625635        9.9262649886
  H         0.6135781129        3.9800057385       18.9068829877
  O         5.0912861414       12.6305541291       10.6494583333
  O        -0.4106211078       12.7313620236       17.9783918526
  H         4.5604412716       13.3137897449        9.7844894479
  H         0.6213377292       13.2739286548       18.9075931535
  O         4.9824553623        2.4397753817       10.4686096570
  O        -0.0944375571        2.4940256667       17.8334269588
  H         4.4598358153        3.1033455643       10.1712258175
  H         0.2143011780        2.6838123570       19.1951987671
  O        10.2356213547        0.4867307086        4.8297157628
  O        14.9281349851        0.4803364154       13.0276663097
  O        16.1886520196        0.4756160225        8.0884640459
  O        11.5755746286        0.3699057128       16.2038027657
  O        11.2965773987        0.4789115584        9.4980891921
  O        15.8956894401        0.4286617843       17.7061898212
  O        13.3474823654        3.9250001990        7.4504698256
  O        18.0160269931        3.9144528053       15.4894569635
  O        16.7842224804        3.8408541762        4.2296755364
  O        12.1014663388        3.9350320619       12.3114560393
  O        12.2161381653        3.9142815342        2.7592755747
  O        16.9630916525        3.9215534260       10.9424417335
  O        13.3495050427        6.3859839550        7.4605471208
  O        18.0159917518        6.4036446630       15.4909794215
  O        16.7841500469        6.4776498163        4.2305831340
  O        12.0889129835        6.3932962317       12.3249111958
  O        12.2177887436        6.4044581997        2.7593876980
  O        16.9635914510        6.3998262416       10.9413250771
  O        10.2354597829        2.9527818751        4.8292974155
  O        14.9324651415        2.9645997893       13.0401898854
  O        16.1757423297        2.9593858571        8.1018655651
  O        11.5801140532        3.0720279562       16.2025037019
  O        11.2965070200        2.9603116882        9.4967739725
  O        15.9048379796        3.0066345269       17.7085970284
  O        12.4872040002        1.7206131174        4.7445736976
  O        17.1537309578        1.7201884933       12.8678876900
  O        11.0632864324        1.7199740562        6.8473833357
  O        15.7721699448        1.7180738334       15.0064848231
  P        11.0428283826        1.7200472542        5.3157968364
  P        15.7336838770        1.7244985848       13.4216513437
 Ca        17.6997378560        1.7199036094        4.1324746707
 Ca        12.8901776788        1.7205271844       12.3495682221
  O        14.9604414952        1.7215616486        6.2056434908
  O        10.2660642245        1.7200120312       14.5014103689
  O        17.5199976305        1.7244819798        6.4165696513
  O        12.8052405257        1.7201786714       14.5915550335
  P        16.1638574345        1.7163443777        7.1849144817
  P        11.4901813659        1.7205122299       15.4905419183
 Ca        11.9611624236        1.7197432554        2.2526939801
 Ca        16.5001438501        1.7134847550       10.2892874213
  O        10.3046117858        1.7202092210       11.5149875573
  O        14.9883135817        1.7223871559       19.7350815270
  O         9.1519493628        1.7206383481        9.2396744434
  O        13.9464415053        1.7215179921       17.3067160298
  P        10.5096292207        1.7227613583        9.9866506699
  P        15.1873522831        1.7198110034       18.2587999071
 Ca        12.9881893701        1.7105750692        8.1672546540
 Ca        17.4860389576        1.7393903558       16.1584531000
  O        11.1007574274        5.1592723949        7.5667951047
  O        15.7811002076        5.1584563542       15.7434041002
  O        12.4791688985        5.1598280612        5.4600344083
  O        17.1703255044        5.1598924529       13.5717930489
  P        12.5291205937        5.1539266971        7.0295918235
  P        17.2102162162        5.1592882828       15.1363048725
 Ca        15.4356851223        5.1541956660        8.0804441352
 Ca        10.4906360884        5.1599318078       16.2803743151
  O        18.0257552810        5.1585801593        5.9878238406
  O        13.3086416887        5.1579325608       14.2706152595
  O        15.4814990174        5.1583202888        5.8434411377
  O        10.7418297290        5.1545722233       13.9899235923
  P        16.8132308540        5.1588104664        5.0263795066
  P        12.1090062153        5.1598969211       13.2726342951
 Ca        11.6750153136        5.1638144816       10.2298338831
 Ca        16.4014952137        5.1582025560       18.2069500208
  O        13.2804588118        5.1576787974        0.7506114988
  O        17.9756593283        5.1586019069        8.9427547472
  O        14.2642588184        5.1586812160        3.1566599398
  O         0.2660272544        5.1585038045       11.2241058687
  P        13.0431904566        5.1587965832        2.2083512812
  P        17.7571827340        5.1562836546       10.4880715929
 Ca        10.6620756221        5.1593379130        4.0686569759
 Ca        15.3323530511        5.1569169857       12.4318581720
 Ca        14.1018353175       -0.1237512702        4.7374770039
 Ca         9.4425047776        0.0126268804       13.0373797801
 Ca         9.4018650168        3.4477264830        7.4960509831
 Ca        14.1864655029        3.2720376282       15.7080857770
 Ca         9.4011734894        6.8712670131        7.4959921542
 Ca        14.1866762299        7.0472796078       15.7097375241
 Ca        14.1020928518        3.5628002471        4.7383707790
 Ca         9.4412302815        3.4273701875       13.0373798116
  O        14.3021401096        0.8790255157        9.9589137790
  O         9.2223311157        0.9305235670       17.9018935128
  H        13.8241578245        0.2509180103       10.4921697139
  H         9.6726363486        0.7700324360       19.1828822992
  O        14.1218287424        4.6993141916        9.9080829250
  O         9.0373390021        4.4590887689       17.9387808682
  H        14.2577527710        3.6899551131       10.5651528292
  H        10.0257845333        3.9321674721       18.9241738078
  O        14.2208564523       12.6928653426       10.4814258636
  O         9.0409220830       12.7715655651       17.9761025521
  H        14.3642675792       13.4589077152        9.8095038805
  H        10.0397620736       13.2119255314       18.8937751246
  O        14.1272050070        2.6188143814       10.6275734264
  O         9.2493864026        2.5362181980       17.8069747607
  H        14.0338122334        3.0935356789        9.8096134549
  H         9.6971532173        2.7011183579       19.2150755896
  O         0.8123949032        7.3651121627        4.8300010529
  O         5.5021183157        7.3625080873       13.0193893932
  O         6.7607633201        7.3564873302        8.0945126649
  O         2.1539656461        7.2487098715       16.2027761938
  O         1.8742801502        7.3615235095        9.4991028344
  O         6.4744637506        7.3097139060       17.7068578801
  O         3.9234922788       10.8039127302        7.4500781340
  O         8.5910311703       10.7927139342       15.4914020886
  O         7.3592817249       10.7197700179        4.2306180366
  O         2.6740327948       10.8083669265       12.3190975246
  O         2.7919642700       10.7936074520        2.7602772420
  O         7.5316300305       10.8041679479       10.9357342127
  O         3.9256539468       13.2658394568        7.4635285095
  O         8.5907895923       13.2839021719       15.4912337335
  O         7.3593422083       13.3568739257        4.2309037659
  O         2.6749276788       13.2702950695       12.3157008731
  O         2.7936931940       13.2828442268        2.7603608346
  O         7.5494237770       13.2836726190       10.9455627552
  O         0.8121033780        9.8325613080        4.8297708943
  O         5.5076850261        9.8414895597       13.0397568384
  O         6.7477066131        9.8368538435        8.1067140092
  O         2.1579191436        9.9511474610       16.2020953445
  O         1.8823942716        9.8345083374        9.4989311432
  O         6.4772329268        9.8874884298       17.7065781161
  O         3.0637726927        8.5996832990        4.7462891164
  O         7.7285492533        8.5985805267       12.8652797618
  O         1.6391857373        8.5986206378        6.8456511800
  O         6.3486183026        8.5956391362       15.0101240458
  P         1.6187625644        8.5990894914        5.3155633631
  P         6.3090840114        8.6057411036       13.4173857950
 Ca         8.2771206262        8.5986957209        4.1301154393
 Ca         3.4463576665        8.6038462128       12.3814098486
  O         5.5339212183        8.6005159748        6.2072032559
  O         0.8442451277        8.5988608721       14.5004782616
  O         8.0959732444        8.6041478910        6.4175202395
  O         3.3810593211        8.5987131937       14.5922938171
  P         6.7371944906        8.5968812209        7.1884888575
  P         2.0647791701        8.5991928541       15.4911838555
 Ca         2.5383551729        8.5987045014        2.2514661730
 Ca         7.1202222308        8.5924225388       10.2864543139
  O         0.8849404023        8.5996728299       11.5167253147
  O         5.5645448455        8.6015955013       19.7353649479
  O        18.5765778451        8.6023847866        9.2375849440
  O         4.5226339336        8.5995697988       17.3059321336
  P         1.0867284744        8.5982344370        9.9863089814
  P         5.7638834028        8.5988259409       18.2591453973
 Ca         3.5388263935        8.5836945860        8.1209004499
 Ca         8.0665955112        8.6132376253       16.1625803873
  O         1.6771846051       12.0383182663        7.5681676236
  O         6.3563644757       12.0374139375       15.7431696827
  O         3.0559955475       12.0390039626        5.4588444646
  O         7.7458914704       12.0385692056       13.5724729078
  P         3.1055775442       12.0299722167        7.0328893857
  P         7.7850981134       12.0375493155       15.1347795793
 Ca         6.0024632537       12.0403902079        8.0915237096
 Ca         1.0638802990       12.0385178772       16.2822313144
  O         8.6005109431       12.0374347083        5.9890503763
  O         3.8866319651       12.0380244928       14.2711938910
  O         6.0578919643       12.0378168874        5.8470220639
  O         1.3163940242       12.0369448303       13.9908159640
  P         7.3892273510       12.0375888178        5.0271639155
  P         2.6875873217       12.0327464994       13.2691890970
 Ca         2.2124989178       12.0450118287       10.2327725508
 Ca         6.9774128027       12.0397256083       18.2063266937
  O         3.8565859701       12.0365844199        0.7504068013
  O         8.5491113966       12.0365605613        8.9421756269
  O         4.8399188186       12.0375728195        3.1572270327
  O         9.6904342181       12.0325944095       11.2261015621
  P         3.6190018852       12.0379658783        2.2087219152
  P         8.3285522799       12.0386795878       10.4873049897
 Ca         1.2364535708       12.0383749862        4.0672644381
 Ca         5.9150729706       12.0304752725       12.4627431465
 Ca         4.6789607322        6.7552694656        4.7337701192
 Ca         0.0121583841        6.8916915574       13.0365054581
 Ca        -0.0292167582       10.3269617092        7.4954378014
 Ca         4.7621123953       10.1526958120       15.7111404545
 Ca        -0.0306047648       13.7502746583        7.4957317070
 Ca         4.7625429604       13.9249196078       15.7123792867
 Ca         4.6790484740       10.4412387346        4.7342916674
 Ca         0.0114054110       10.3071589027       13.0366011161
  O         4.7820724264        7.7885865261        9.8813832019
  O        -0.1915829053        7.8084764595       17.8910074198
  H         4.3971102704        7.1587437378       10.5740790435
  H         0.2450863604        7.6452036315       19.1876663966
  O         4.2625642066       11.5082183335       10.0465552963
  O        -0.4035099417       11.3386223009       17.9529709782
  H         5.1782668542       10.5906609731       10.3989113254
  H         0.6090052404       10.8112182522       18.9238745860
  O         4.2871823156        5.8701508072       10.5242168027
  O        -0.3963683889        5.8939909242       17.9916959893
  H         5.1179670568        6.5369623675        9.8048774893
  H         0.6227459998        6.3370408300       18.8861696641
  O         4.8885341759        9.5241777274       10.6776870409
  O        -0.1892750837        9.4134989135       17.8116062462
  H         4.3258472479        9.9423549959        9.8396034710
  H         0.2774460590        9.5812793620       19.2149158599
  O        10.2357620956        7.3659114053        4.8297034703
  O        14.9290751976        7.3586453305       13.0271444233
  O        16.1806033185        7.3569425407        8.0980055620
  O        11.5788253718        7.2472780075       16.2026511372
  O        11.2876195250        7.3565562488        9.4946080904
  O        15.9005500832        7.3096026074       17.7072799738
  O        13.3502720347       10.8088447227        7.4602973382
  O        18.0151673462       10.7916786973       15.4891758877
  O        16.7838908623       10.7199322428        4.2301502804
  O        12.0904436620       10.8057179906       12.3209953006
  O        12.2161025493       10.7931836862        2.7594805929
  O        16.9615781175       10.8006579794       10.9390657046
  O        13.3476069988       13.2644602103        7.4561049337
  O        18.0153194007       13.2837696561       15.4901741045
  O        16.7838788996       13.3561309262        4.2305183604
  O        12.0977261998       13.2696031778       12.3141366751
  O        12.2178834458       13.2832440787        2.7593946604
  O        16.9691208699       13.2774802853       10.9434859939
  O        10.2354644289        9.8320171137        4.8292219187
  O        14.9304028488        9.8404196407       13.0383640792
  O        16.1801840592        9.8423982107        8.0967711076
  O        11.5763082745        9.9490508158       16.2041112790
  O        11.3045587142        9.8392978779        9.4993000995
  O        15.8999877329        9.8872836905       17.7069221271
  O        12.4874177886        8.5998078220        4.7448061209
  O        17.1531572578        8.5980468559       12.8675682979
  O        11.0636805482        8.5993856647        6.8474668845
  O        15.7725285173        8.5975493047       15.0055749271
  P        11.0425103248        8.5990160668        5.3158831481
  P        15.7348136397        8.6067618931       13.4234643199
 Ca        17.6999771451        8.5985329277        4.1320614670
 Ca        12.8978236154        8.5967483215       12.3403769322
  O        14.9606387406        8.5996913770        6.2064119439
  O        10.2660332265        8.6001120644       14.5019320773
  O        17.5188910209        8.6002734300        6.4179979729
  O        12.8053020635        8.5995472976       14.5904882399
  P        16.1637101556        8.6006685490        7.1829541533
  P        11.4895326189        8.5990147571       15.4907390317
 Ca        11.9612861646        8.5988161559        2.2526731137
 Ca        16.5194059933        8.5946801176       10.2863301405
  O        10.3044994694        8.6007958792       11.5147506199
  O        14.9882917110        8.5998837918       19.7347777174
  O         9.1541213141        8.6038358941        9.2400500013
  O        13.9462007515        8.5983634459       17.3063160897
  P        10.5077258162        8.5940389182        9.9861903631
  P        15.1875928790        8.6000529829       18.2589562724
 Ca        12.9877405498        8.5895736479        8.1635931343
 Ca        17.4868657448        8.5856450013       16.1618316113
  O        11.1007194074       12.0370705509        7.5671030423
  O        15.7803228660       12.0374289861       15.7434512955
  O        12.4791434957       12.0353615789        5.4597741114
  O        17.1695625439       12.0381769087       13.5709327865
  P        12.5284312532       12.0382989523        7.0285268683
  P        17.2100671203       12.0383188409       15.1353741061
 Ca        15.4306572563       12.0474652555        8.0862932236
 Ca        10.4891619797       12.0380004618       16.2827440397
  O        18.0254199725       12.0372871692        5.9874563113
  O        13.3087988441       12.0381711170       14.2711254860
  O        15.4812952801       12.0374790460        5.8460631556
  O        10.7426593932       12.0378041221       13.9890229093
  P        16.8145792881       12.0379899329        5.0260901328
  P        12.1089342043       12.0317551125       13.2722823192
 Ca        11.6644786730       12.0439114118       10.2290397709
 Ca        16.3953087732       12.0364478695       18.2070742422
  O        13.2805075198       12.0362691573        0.7506021386
  O        17.9750945153       12.0366256275        8.9416182505
  O        14.2643684067       12.0372066946        3.1569490074
  O         0.2645973090       12.0346204705       11.2247713084
  P        13.0430160973       12.0377179304        2.2083173939
  P        17.7585706327       12.0405532272       10.4903030789
 Ca        10.6620153804       12.0383080643        4.0684082692
 Ca        15.3209999072       12.0389649142       12.4172980018
 Ca        14.1020188462        6.7545415736        4.7372121341
 Ca         9.4436546481        6.8906829130       13.0384011595
 Ca         9.4017727851       10.3264982941        7.4948633069
 Ca        14.1880181730       10.1518047061       15.7085085547
 Ca         9.4014694607       13.7505396565        7.4951378274
 Ca        14.1877446274       13.9258069326       15.7093810733
 Ca        14.1019802865       10.4415218310        4.7372944185
 Ca         9.4435594921       10.3057825854       13.0379766518
  O        13.9095721181        7.8629518356       10.0923717379
  O         9.2218125851        7.7748066848       17.8265628487
  H        14.1595688040        7.0756206951       10.4795024489
  H         9.6935389283        7.6174619448       19.2172228276
  O        13.8118880174       11.3657500521       10.5288588139
  O         9.0237604727       11.3027083207       17.9932327373
  H        14.5811330981       10.5915608934        9.9747914312
  H        10.0459700141       10.8605944428       18.8897933540
  O        14.0537059016        5.8938142128       10.7543677835
  O         9.0044184137        5.8633089643       18.0063255924
  H        14.2466948609        6.3613128903        9.7683619257
  H        10.0538840847        6.3907271641       18.8811569947
  O        14.4840525318        9.4731379785       10.4151579998
  O         9.2494742994        9.3927374943       17.8835993052
  H        13.6968975353       10.0499317607       10.1567606980
  H         9.6655172616        9.5548611610       19.1864401819
  O         7.8156288023        6.5714778640       25.4948385279
  C         9.2446653122        7.2806232075       25.4481174488
  O        10.7470968706        8.0275928540       25.3945394936
     387
 i =       14, E =     -6919.5745796988
  O         0.8131491391        0.4703815026        4.8329633479
  O         5.5120444471        0.4795312916       13.0234733448
  O         6.7425647738        0.4768691591        8.1068187469
  O         2.1161128124        0.3901493833       16.2516086517
  O         1.8702739854        0.4792076618        9.5079759387
  O         6.5303175363        0.4250118488       17.6861084371
  O         3.9204938314        3.9150596194        7.4608539156
  O         8.5903381240        3.8896721065       15.5119557820
  O         7.3758381186        3.8510672030        4.1932675894
  O         2.6889301816        3.9282014483       12.3230537481
  O         2.7808664783        3.8859138187        2.7685291439
  O         7.5503838222        3.9030615270       10.9411898347
  O         3.9164060883        6.3919459733        7.4413861094
  O         8.5914230206        6.4259964229       15.5162505705
  O         7.3756923913        6.4668355741        4.1940844642
  O         2.6664283057        6.4016773264       12.3518483191
  O         2.7826658129        6.4328238607        2.7684275118
  O         7.5314773918        6.3999059886       10.9312094472
  O         0.8129524655        2.9696536284        4.8328405108
  O         5.5125344195        2.9697640717       13.0404558285
  O         6.7400184752        2.9664884249        8.1077952095
  O         2.1203005290        3.0515103084       16.2479602418
  O         1.8948773288        2.9654309129        9.5140574035
  O         6.5300804400        3.0126709115       17.6860331409
  O         3.0642754672        1.7208932058        4.7302869948
  O         7.7457532369        1.7189613436       12.8726095631
  O         1.6279990577        1.7209934191        6.8553260904
  O         6.3169931827        1.7181838833       15.0331772469
  P         1.6082208424        1.7195212712        5.3324288788
  P         6.2900522938        1.7252500473       13.3928260571
 Ca         8.2500594881        1.7197078410        4.1254679669
 Ca         3.4576727004        1.7154353190       12.3397093459
  O         5.5164289972        1.7213449432        6.2089653014
  O         0.8174615975        1.7220171451       14.4746554856
  O         8.1035239364        1.7216121628        6.4031615162
  O         3.3858283095        1.7203438572       14.5863382731
  P         6.7356732866        1.7170314811        7.2264737355
  P         2.0616211929        1.7205366758       15.4238597327
 Ca         2.4894263574        1.7197687488        2.2172592149
 Ca         7.1241919563        1.7204209684       10.2955114232
  O         0.8806706354        1.7235347412       11.5392717969
  O         5.5726687566        1.7202528415       19.7243174463
  O        18.5703959910        1.7277211902        9.2219756548
  O         4.4653498024        1.7190680175       17.3390891843
  P         1.1080568018        1.7098011135        9.9703441534
  P         5.7418391505        1.7207739753       18.2367074714
 Ca         3.5513496043        1.7038210423        8.1448765880
 Ca         8.1486056153        1.7094160399       16.1994764808
  O         1.6592137441        5.1563529114        7.5725420786
  O         6.3532168296        5.1587141052       15.7440125200
  O         3.0731672788        5.1518620687        5.4230435386
  O         7.7732353568        5.1599040536       13.5836158642
  P         3.1210198960        5.1672724692        7.0361731488
  P         7.7980478836        5.1595454427       15.0847177358
 Ca         6.0028669925        5.1609107222        8.1268411676
 Ca         1.1270637803        5.1600958401       16.3184699906
  O         8.6268288065        5.1580824782        6.0101878027
  O         3.9129235502        5.1572056470       14.2647344713
  O         6.0429540619        5.1573404182        5.8500363989
  O         1.3034521429        5.1515734131       14.0222384700
  P         7.3870721690        5.1594243981        5.0573341171
  P         2.6894973435        5.1643572231       13.2050616225
 Ca         2.2364488238        5.1628248557       10.2195193062
 Ca         6.9482478144        5.1530380447       18.2641391640
  O         3.8488516587        5.1573609568        0.7625895063
  O         8.5473177493        5.1586849239        8.9340156259
  O         4.9086241340        5.1582355351        3.1230843491
  O         9.6981452779        5.1627757086       11.2453280841
  P         3.6314447990        5.1587874617        2.2243217027
  P         8.3078629715        5.1586969446       10.4832071067
 Ca         1.1943338366        5.1591129988        4.1006242135
 Ca         5.8785614584        5.1614145973       12.4152987383
 Ca         4.6924618273       -0.0584211982        4.7709611911
 Ca         0.0098427841        0.0093183985       13.0181851006
 Ca        -0.0214110579        3.4479403132        7.5143073830
 Ca         4.7357346504        3.3651242246       15.7044688907
 Ca        -0.0202773519        6.8708771003        7.5155762772
 Ca         4.7356749308        6.9542631178       15.7055377929
 Ca         4.6932284813        3.4964993242        4.7696815767
 Ca         0.0091542893        3.4264872419       13.0179819014
  O         4.4437286315        0.8611127330       10.0310948716
  O        -0.1774727687        1.0134974056       18.0745298846
  H         4.8381788130        0.1789166911       10.4976711123
  H         0.2178365958        0.5973897648       18.9614261980
  O         5.0367807857        4.5824079329       10.3607247072
  O        -0.2326901041        4.4559190076       18.1430182392
  H         4.7149166862        3.9535848342        9.9520264742
  H         0.4134791962        3.9483523542       18.7496314552
  O         4.9946714617       12.6072098372       10.4865918207
  O        -0.2422240944       12.7321559561       18.1399445097
  H         4.5835308061       13.3608155410        9.8592373778
  H         0.4285071432       13.3095638783       18.7650788525
  O         5.0428516594        2.5253404154       10.4987162689
  O        -0.0250775168        2.4072102621       18.0649241224
  H         4.4034033612        3.0649399791       10.1936172674
  H         0.1437951711        2.8075763742       18.9451987671
  O        10.2367135152        0.4707292793        4.8327959939
  O        14.9353733916        0.4779098429       13.0263844974
  O        16.1804125800        0.4678655102        8.0913573947
  O        11.5375944537        0.3905498480       16.2511528751
  O        11.3044541604        0.4759141876        9.5127536570
  O        15.9477165318        0.4225795215       17.6850776605
  O        13.3423046180        3.9040082787        7.4400928530
  O        18.0168659358        3.8935625771       15.5130177432
  O        16.8011487777        3.8514129339        4.1926805341
  O        12.1111944136        3.9342341131       12.3271852888
  O        12.2049447270        3.8856763583        2.7675338096
  O        16.9573227857        3.9121414750       10.9385248270
  O        13.3417431919        6.3951345715        7.4489147292
  O        18.0167413972        6.4247496014       15.5149225743
  O        16.8010295005        6.4672273640        4.1937798576
  O        12.0953370145        6.3995750719       12.3455712417
  O        12.2064539826        6.4331945943        2.7675823353
  O        16.9576866106        6.4074047356       10.9345438097
  O        10.2364111328        2.9685523973        4.8327648658
  O        14.9399916640        2.9740922200       13.0451060211
  O        16.1617842835        2.9633199872        8.1101088339
  O        11.5441011535        3.0510445783       16.2487357108
  O        11.3044960971        2.9657502703        9.5093803237
  O        15.9594899162        3.0110791797       17.6879801705
  O        12.4877856310        1.7202924287        4.7288666829
  O        17.1687807157        1.7208623998       12.8747352400
  O        11.0529427159        1.7194641127        6.8575929478
  O        15.7391540489        1.7163546410       15.0307051937
  P        11.0318828987        1.7201003022        5.3327688434
  P        15.7169000736        1.7202289056       13.3958557236
 Ca        17.6729524527        1.7201630950        4.1272894924
 Ca        12.8842297323        1.7226471141       12.3341834565
  O        14.9431310527        1.7216464637        6.2075039516
  O        10.2409602550        1.7197102640       14.4759389417
  O        17.5274872319        1.7269540694        6.4018871869
  O        12.8107041898        1.7200419904       14.5833012178
  P        16.1633044073        1.7143298311        7.2221376089
  P        11.4850556120        1.7210970421       15.4237601746
 Ca        11.9123689136        1.7199345357        2.2184318503
 Ca        16.4893532387        1.7132787493       10.3009999713
  O        10.3008688326        1.7201772464       11.5368155149
  O        14.9965859597        1.7225605088       19.7245929710
  O         9.1479315665        1.7207158711        9.2228470015
  O        13.8886261014        1.7218213725       17.3388328918
  P        10.5261295800        1.7205019483        9.9707497309
  P        15.1669713417        1.7212922345       18.2371143417
 Ca        12.9913982828        1.7062838434        8.1755245517
 Ca        17.5703147760        1.7359223481       16.1959176767
  O        11.0839926555        5.1584876454        7.5704675524
  O        15.7780919382        5.1585717701       15.7440488936
  O        12.4967889989        5.1603132215        5.4249457389
  O        17.1988717352        5.1605146875       13.5831327429
  P        12.5457631941        5.1596317375        7.0361496076
  P        17.2247479951        5.1597124226       15.0876346981
 Ca        15.4348164204        5.1506642231        8.1133552997
 Ca        10.5540480142        5.1606075510       16.3156350639
  O        18.0514488878        5.1585866997        6.0094611998
  O        13.3355547775        5.1579270239       14.2643129573
  O        15.4660838108        5.1581038525        5.8461611224
  O        10.7289081444        5.1529779126       14.0234174821
  P        16.8114308293        5.1589721433        5.0556571679
  P        12.1094745420        5.1623559314       13.2096864643
 Ca        11.7081713374        5.1633116671       10.2265853182
 Ca        16.3799118423        5.1570696300       18.2631771921
  O        13.2728137149        5.1576551637        0.7622633506
  O        17.9727114538        5.1586297469        8.9363701579
  O        14.3329937375        5.1585599639        3.1231963147
  O         0.2669099218        5.1590425542       11.2461168405
  P        13.0555453180        5.1588690608        2.2241431011
  P        17.7371930604        5.1590869065       10.4814092762
 Ca        10.6199434102        5.1593973011        4.1020674119
 Ca        15.3165012754        5.1469315295       12.4193128491
 Ca        14.1152982200       -0.0573209372        4.7739047059
 Ca         9.4390683029        0.0118404618       13.0187240196
 Ca         9.4093066775        3.4488905316        7.5158123556
 Ca        14.1577861966        3.3635822149       15.7016897086
 Ca         9.4075360625        6.8715310353        7.5166397876
 Ca        14.1575432270        6.9553885235       15.7038828487
 Ca        14.1154746669        3.4971420173        4.7752882358
 Ca         9.4370263545        3.4284902996       13.0191800202
  O        14.2769682248        0.7737369270        9.9355091513
  O         9.3271858589        1.0252229118       18.1202493603
  H        13.8465868589        0.3334590905       10.4903758450
  H         9.5830530488        0.6481961135       18.9328822992
  O        14.1293478554        4.6682535641        9.9367886496
  O         9.1817977275        4.4640772873       18.1158956294
  H        14.2415912722        3.6513271580       10.5833268263
  H         9.8365369039        3.8952271382       18.7761467282
  O        14.2198245507       12.6937212620       10.4766181519
  O         9.2007645723       12.7317148520       18.1457181327
  H        14.3587885631       13.4962095737        9.8011603426
  H         9.8382582614       13.2410568323       18.7336426039
  O        14.1410712919        2.7140888038       10.5672588450
  O         9.3398461155        2.4326383128       18.0290328686
  H        14.0316341263        3.0760001234        9.8551053165
  H         9.6172095378        2.8412762392       18.9650755896
  O         0.8128736828        7.3486963258        4.8324272329
  O         5.5111946345        7.3585820582       13.0215480171
  O         6.7556032782        7.3480213788        8.0947800474
  O         2.1158473112        7.2685172935       16.2504732926
  O         1.8754703346        7.3561390072        9.5125981283
  O         6.5284364547        7.3036951547       17.6862179684
  O         3.9173308463       10.7851582839        7.4355998288
  O         8.5921632324       10.7725182929       15.5152697335
  O         7.3760546053       10.7304054017        4.1931341733
  O         2.6799727164       10.8046462885       12.3391419010
  O         2.7809033305       10.7647608776        2.7681915288
  O         7.5318252333       10.7978578997       10.9292983203
  O         3.9175782308       13.2754866144        7.4488042973
  O         8.5917252097       13.3045333559       15.5154802283
  O         7.3761464689       13.3468270704        4.1935789611
  O         2.6839135953       13.2718623746       12.3327625245
  O         2.7822935653       13.3120622535        2.7683515040
  O         7.5518295598       13.2975179924       10.9428238318
  O         0.8124884262        9.8483133994        4.8325089683
  O         5.5173178750        9.8514202848       13.0518210921
  O         6.7383951963        9.8426857648        8.1090003841
  O         2.1214883529        9.9306847193       16.2490475260
  O         1.8859668910        9.8387540721        9.5110035278
  O         6.5317937851        9.8931284493       17.6860875858
  O         3.0640674179        8.5992973486        4.7295335903
  O         7.7471755737        8.5985518013       12.8727505570
  O         1.6237669124        8.5979766015        6.8530280891
  O         6.3173136511        8.5925678721       15.0353442990
  P         1.6083655567        8.5995276578        5.3330424978
  P         6.2888171010        8.6010226368       13.3899479328
 Ca         8.2498704312        8.5989954161        4.1267393129
 Ca         3.4514942373        8.6132396937       12.3486221811
  O         5.5161436820        8.6003207168        6.2063453278
  O         0.8172250267        8.5981989689       14.4748213022
  O         8.1050814382        8.6059406767        6.4018621801
  O         3.3858298563        8.5981762254       14.5888868991
  P         6.7347961137        8.5961351694        7.2316075323
  P         2.0617899076        8.5996810612       15.4239223812
 Ca         2.4892458583        8.5989610602        2.2174566034
 Ca         7.0904367468        8.5927068500       10.2965389113
  O         0.8789829991        8.5995339462       11.5393953178
  O         5.5727150128        8.6018905400       19.7244482745
  O        18.5674245650        8.6036038362        9.2218690125
  O         4.4654610572        8.5998026752       17.3395530237
  P         1.1087965906        8.5967034343        9.9703306219
  P         5.7417953125        8.5988322403       18.2369688552
 Ca         3.5504333076        8.5788413893        8.1351875929
 Ca         8.1485119636        8.6100533482       16.1994635895
  O         1.6575331428       12.0379987768        7.5710443581
  O         6.3538592270       12.0377070687       15.7443552115
  O         3.0731374685       12.0403261970        5.4219754060
  O         7.7812512095       12.0392331537       13.5877323852
  P         3.1245304630       12.0346260311        7.0420779076
  P         7.8000067518       12.0374609664       15.0852614372
 Ca         5.9865663690       12.0347499578        8.1433773209
 Ca         1.1288410056       12.0388393951       16.3172104031
  O         8.6272120098       12.0377474137        6.0103288164
  O         3.9137256274       12.0385338345       14.2668252356
  O         6.0439344290       12.0380810573        5.8499404760
  O         1.3024277647       12.0380305343       14.0240263582
  P         7.3859586440       12.0372292608        5.0582192075
  P         2.6896853489       12.0357736926       13.2016960302
 Ca         2.2174347332       12.0522150638       10.2310037823
 Ca         6.9546677197       12.0396496327       18.2626839940
  O         3.8488017271       12.0365248916        0.7625124428
  O         8.5478816501       12.0374181346        8.9342667161
  O         4.9085791124       12.0375301542        3.1226898326
  O         9.6962074841       12.0312153259       11.2463707986
  P         3.6316241510       12.0377815927        2.2246113583
  P         8.3062491030       12.0382096686       10.4829089764
 Ca         1.1952268878       12.0382499605        4.1014268895
 Ca         5.8979875518       12.0097439738       12.4769461216
 Ca         4.6926641310        6.8217388173        4.7723273996
 Ca         0.0123556614        6.8917148473       13.0183308691
 Ca        -0.0193246950       10.3281900163        7.5158662450
 Ca         4.7337674211       10.2441431404       15.7033143567
 Ca        -0.0213024127       13.7492330467        7.5167667670
 Ca         4.7335956328       13.8325446758       15.7052198392
 Ca         4.6923378873       10.3756960068        4.7734890340
 Ca         0.0108795709       10.3089493999       13.0185839017
  O         4.7985939234        7.6662052469        9.9040813463
  O        -0.0872713682        7.9013955630       18.1107667857
  H         4.4638415771        7.2059949135       10.5037927462
  H         0.1570669103        7.5230238432       18.9376663966
  O         4.3950848208       11.5341332514       10.0535694099
  O        -0.2505980581       11.3370217934       18.1197897101
  H         5.0695116785       10.5223102130       10.4200726989
  H         0.4192595541       10.7739565172       18.7785933169
  O         4.3776671612        5.8183452142       10.4494073193
  O        -0.2291593412        5.8525267616       18.1602630279
  H         4.9949599312        6.6456168985        9.8926561973
  H         0.4191052124        6.3651602381       18.7302630035
  O         4.8568816526        9.6570441766       10.5331295748
  O        -0.0984305927        9.3123680858       18.0312564457
  H         4.4240706793        9.9139323462        9.9846514683
  H         0.1964129889        9.7223387389       18.9649158599
  O        10.2367109595        7.3497439939        4.8323831027
  O        14.9365621290        7.3543387461       13.0243654413
  O        16.1681822678        7.3530176069        8.1058637852
  O        11.5423347714        7.2679449976       16.2494696543
  O        11.2878076693        7.3499283210        9.5066912953
  O        15.9541811734        7.3041737162       17.6866286238
  O        13.3452342324       10.7960223102        7.4531353731
  O        18.0151745573       10.7698317700       15.5133244804
  O        16.8001970460       10.7307840574        4.1935384247
  O        12.0936859329       10.7970969646       12.3438827872
  O        12.2050434489       10.7647900284        2.7677890433
  O        16.9582941860       10.7928324689       10.9323467280
  O        13.3418342260       13.2753016373        7.4485572066
  O        18.0155558354       13.3058271581       15.5147556664
  O        16.8002174504       13.3456885155        4.1936768378
  O        12.1076217550       13.2717620330       12.3293783677
  O        12.2066960276       13.3119270767        2.7677116743
  O        16.9670506682       13.2876191042       10.9384753095
  O        10.2365074436        9.8480945935        4.8322818649
  O        14.9364725677        9.8487523622       13.0427976423
  O        16.1675878668        9.8497239847        8.1031303042
  O        11.5389162725        9.9285225284       16.2512362518
  O        11.3140203362        9.8433591678        9.5138319962
  O        15.9535049053        9.8921678849       17.6858708519
  O        12.4881316982        8.5998385780        4.7288308096
  O        17.1683310070        8.5971744989       12.8739296304
  O        11.0533422301        8.5995183426        6.8569505651
  O        15.7401740552        8.5951201908       15.0302112264
  P        11.0317612493        8.5989332528        5.3339693963
  P        15.7177722967        8.6053698402       13.3973022360
 Ca        17.6733355201        8.5985351494        4.1268543032
 Ca        12.8974305846        8.6000673980       12.3170099182
  O        14.9430992480        8.5999321021        6.2079578271
  O        10.2409106771        8.6002299156       14.4769184493
  O        17.5267207909        8.6000273582        6.4035758389
  O        12.8106506327        8.5995796552       14.5816434604
  P        16.1617372145        8.5974891793        7.2227137786
  P        11.4846909246        8.5986180569       15.4229702105
 Ca        11.9125057393        8.5987390073        2.2184999074
 Ca        16.5259251901        8.5920220930       10.2940848918
  O        10.3007224875        8.6014030638       11.5373013105
  O        14.9966387623        8.5994938135       19.7243587784
  O         9.1497121241        8.6068230545        9.2224327370
  O        13.8884897478        8.5977150111       17.3384355673
  P        10.5257378675        8.5910262179        9.9694904108
  P        15.1666182550        8.5995304986       18.2370811996
 Ca        12.9895215812        8.5860827561        8.1678642466
 Ca        17.5715883262        8.5896348655       16.2007946084
  O        11.0845626506       12.0370694792        7.5707859328
  O        15.7769253996       12.0374861653       15.7445145654
  O        12.4970420213       12.0347165166        5.4248916752
  O        17.1970804338       12.0382185752       13.5824534232
  P        12.5431609153       12.0379283657        7.0337961935
  P        17.2246306090       12.0382579611       15.0846035012
 Ca        15.4213515854       12.0482497578        8.1303706769
 Ca        10.5521544878       12.0375585816       16.3174306540
  O        18.0508194997       12.0372036506        6.0090022137
  O        13.3349372998       12.0385121925       14.2649071301
  O        15.4665124354       12.0373555779        5.8516504513
  O        10.7293277159       12.0397303490       14.0226531006
  P        16.8133650389       12.0377094350        5.0556168239
  P        12.1108584370       12.0339081945       13.2073928173
 Ca        11.6827171583       12.0459406026       10.2246263992
 Ca        16.3703635935       12.0352518815       18.2643239522
  O        13.2728847344       12.0362296306        0.7623599951
  O        17.9714417243       12.0363995021        8.9346767374
  O        14.3330310128       12.0372112430        3.1236465117
  O         0.2637117245       12.0331518550       11.2490215951
  P        13.0554243148       12.0377374676        2.2240957410
  P        17.7377735425       12.0420492671       10.4848503006
 Ca        10.6193804004       12.0380664975        4.1015919437
 Ca        15.2946782281       12.0341366857       12.3913173887
 Ca        14.1153404261        6.8205880755        4.7741732034
 Ca         9.4401436204        6.8904938444       13.0200517784
 Ca         9.4076093988       10.3263101393        7.5147149575
 Ca        14.1599610970       10.2440291912       15.7019619141
 Ca         9.4079219970       13.7492909784        7.5150130287
 Ca        14.1596672151       13.8331493160       15.7029567900
 Ca        14.1152922101       10.3754180268        4.7735652580
 Ca         9.4405387310       10.3060148347       13.0191587630
  O        13.8999472789        7.7985143053       10.0406713799
  O         9.3212624358        7.8785506475       18.0511339355
  H        14.1693258632        7.1674297784       10.4924085072
  H         9.6114402703        7.4827214393       18.9672228276
  O        13.8696530357       11.3778078650       10.4517187974
  O         9.1883537525       11.3397265676       18.1629898742
  H        14.5326957899       10.5415482198       10.0632062348
  H         9.8433466655       10.8308121514       18.7347126440
  O        14.0693226731        5.8306441925       10.6194405750
  O         9.1754076598        5.8614131921       18.1686439846
  H        14.2055296286        6.4005219300        9.8863221137
  H         9.8530601869        6.4213240184       18.7424012131
  O        14.4291301468        9.5579994695       10.3487977795
  O         9.3477461718        9.3002208736       18.1000881863
  H        13.7660706195       10.0082343742       10.1963128022
  H         9.5809379797        9.6769615056       18.9364401819
  O         7.8937274581        6.6153097520       25.4986338036
  C         9.2291927679        7.2730167720       25.4532278203
  O        10.6908186186        7.9949343090       25.4090758127
     387
 i =       15, E =     -6920.2118011704
  O         0.8166230956        0.4702379350        4.8276702692
  O         5.5092065269        0.4743267331       13.0179794922
  O         6.7440029821        0.4727775268        8.1037392790
  O         2.1280412039        0.3858711002       16.2451908561
  O         1.8652529850        0.4760362353        9.5024511708
  O         6.5207040324        0.4221647908       17.6851864724
  O         3.9221909621        3.9138249151        7.4646164781
  O         8.5815113495        3.8871421893       15.4965959140
  O         7.3734857304        3.8493735549        4.1917129903
  O         2.6902319103        3.9259363455       12.3178992594
  O         2.7745671718        3.8846222425        2.7646176018
  O         7.5560259550        3.9016733830       10.9418865322
  O         3.9195480192        6.3953418277        7.4410897009
  O         8.5831320775        6.4284396839       15.5022749188
  O         7.3732928222        6.4685694023        4.1926081822
  O         2.6618010337        6.4127727764       12.3545989346
  O         2.7767375854        6.4340224279        2.7645621161
  O         7.5278543474        6.4022748192       10.9286697778
  O         0.8164930663        2.9700595201        4.8276936890
  O         5.5108112164        2.9770510655       13.0431838040
  O         6.7406252544        2.9704983491        8.1032870182
  O         2.1329794846        3.0569096419       16.2405374677
  O         1.8977630895        2.9671893288        9.5118003366
  O         6.5204019121        3.0150120566       17.6849567586
  O         3.0656754815        1.7211854001        4.7263245487
  O         7.7476028652        1.7184455338       12.8661733862
  O         1.6274817069        1.7213529423        6.8563328881
  O         6.3079504577        1.7166949566       15.0258705845
  P         1.6097576942        1.7194332591        5.3248100345
  P         6.2912965689        1.7282666900       13.3873551487
 Ca         8.2546611308        1.7195461437        4.1315026609
 Ca         3.4570525232        1.7149972736       12.3424144642
  O         5.5192446439        1.7217225382        6.2024198680
  O         0.8161345063        1.7226907051       14.4779403110
  O         8.1053190179        1.7219766215        6.3996791556
  O         3.3913234570        1.7203231981       14.5835955149
  P         6.7360921857        1.7175456733        7.2188063338
  P         2.0686918401        1.7205825756       15.4259334414
 Ca         2.5043287505        1.7196372297        2.2264208758
 Ca         7.1271722849        1.7221200662       10.2975283948
  O         0.8815977520        1.7246743039       11.5380890941
  O         5.5701129294        1.7202224139       19.7280769762
  O        18.5685695216        1.7308513815        9.2177021368
  O         4.4562762516        1.7187316051       17.3411551722
  P         1.1059707581        1.7095370475        9.9720789047
  P         5.7337761441        1.7206564819       18.2386355429
 Ca         3.5512289673        1.6977229011        8.1463609710
 Ca         8.1328084467        1.7077524197       16.1773810738
  O         1.6570942198        5.1560528077        7.5746636603
  O         6.3518536046        5.1588965092       15.7431159144
  O         3.0732633188        5.1497202113        5.4248396527
  O         7.7715300141        5.1606109752       13.5694267503
  P         3.1161982947        5.1638426552        7.0345124630
  P         7.7945036685        5.1589530555       15.0874886946
 Ca         6.0143548790        5.1603471416        8.1176671337
 Ca         1.1211932463        5.1600963016       16.3101344788
  O         8.6292467929        5.1579062481        6.0067393476
  O         3.9104378790        5.1572686899       14.2658913748
  O         6.0365180581        5.1569901312        5.8448403322
  O         1.3001464092        5.1492715383       14.0165592712
  P         7.3871419143        5.1591210952        5.0519884351
  P         2.6885853452        5.1622718492       13.2142470141
 Ca         2.2166574277        5.1627293686       10.2239240385
 Ca         6.9223201674        5.1517795703       18.2588574952
  O         3.8508946226        5.1569611471        0.7568783416
  O         8.5462800854        5.1590362458        8.9326908902
  O         4.9081642694        5.1580489154        3.1195857258
  O         9.6969986236        5.1648476312       11.2468327590
  P         3.6295406606        5.1588071076        2.2216218312
  P         8.3083694389        5.1540756377       10.4839035481
 Ca         1.1979814797        5.1590539621        4.0987228068
 Ca         5.8783184022        5.1592302322       12.4302287757
 Ca         4.6909383397       -0.0562644644        4.7743579374
 Ca         0.0116532018        0.0092065026       13.0258507199
 Ca        -0.0234545108        3.4474910716        7.5168498562
 Ca         4.7352571583        3.3692901981       15.7064781295
 Ca        -0.0228269458        6.8711868746        7.5180888999
 Ca         4.7350772964        6.9496245332       15.7088466477
 Ca         4.6921338805        3.4934251593        4.7722692237
 Ca         0.0111938860        3.4252434022       13.0255096229
  O         4.3706515806        0.7838396543        9.9627666839
  O        -0.1877985034        0.9924207173       18.0647655477
  H         4.8713290337        0.2038747508       10.5745048765
  H         0.2387911183        0.6410797572       19.0102032238
  O         5.1307642146        4.6263032459       10.4189844444
  O        -0.2466714347        4.4175619409       18.1273518318
  H         4.6894070791        3.9513556027        9.8585522734
  H         0.4567948692        3.9962948223       18.7859834298
  O         5.0594183258       12.6138580512       10.5172111700
  O        -0.2552414758       12.7584161633       18.1222859789
  H         4.5512352983       13.3453635520        9.7930977471
  H         0.4757990439       13.2680321239       18.8066075235
  O         5.1329418073        2.5688760603       10.5608819773
  O        -0.0093273974        2.4278327134       18.0379944585
  H         4.3180872957        3.0301152446       10.1875304426
  H         0.1543058410        2.7564846084       19.0014894641
  O        10.2403824487        0.4705144365        4.8276048148
  O        14.9317657996        0.4745034344       13.0203939753
  O        16.1842096509        0.4623268304        8.0855265218
  O        11.5495172522        0.3861959837       16.2446824676
  O        11.3060652972        0.4746321304        9.5099613189
  O        15.9365699042        0.4196070456       17.6837046439
  O        13.3434081456        3.8979500593        7.4380744415
  O        18.0087974750        3.8915708583       15.4980726638
  O        16.7992187403        3.8496356649        4.1910743167
  O        12.1129330748        3.9311394413       12.3226468930
  O        12.1986526570        3.8844598041        2.7634480397
  O        16.9556137786        3.9109979209       10.9377943056
  O        13.3441240361        6.3962974151        7.4490606491
  O        18.0088386163        6.4268199533       15.5006062523
  O        16.7990395901        6.4690090962        4.1923083214
  O        12.0925840218        6.4069394754       12.3475530893
  O        12.2004304333        6.4345635854        2.7634743715
  O        16.9557226673        6.4085981304       10.9322359089
  O        10.2399603007        2.9688015941        4.8276817519
  O        14.9385355281        2.9806234525       13.0448363041
  O        16.1603089333        2.9648816322        8.1084406165
  O        11.5572588256        3.0558526895       16.2411807405
  O        11.3059864405        2.9675968543        9.5059656699
  O        15.9510978024        3.0133075109       17.6870350404
  O        12.4891528770        1.7202371118        4.7248661585
  O        17.1696223357        1.7213389767       12.8677454678
  O        11.0539455271        1.7190939116        6.8594270898
  O        15.7292794860        1.7151381163       15.0218856641
  P        11.0333026942        1.7201221641        5.3254166305
  P        15.7191967171        1.7205831969       13.3929936960
 Ca        17.6774986812        1.7202143842        4.1330361812
 Ca        12.8783990208        1.7242155363       12.3441310478
  O        14.9468271981        1.7218432890        6.2018025726
  O        10.2403333983        1.7195705402       14.4795857967
  O        17.5289748259        1.7294254537        6.3984577950
  O        12.8164527817        1.7199907478       14.5789866609
  P        16.1649984452        1.7140317691        7.2113287728
  P        11.4911461469        1.7213797594       15.4260243411
 Ca        11.9272006407        1.7199638137        2.2277720230
 Ca        16.4839799241        1.7114251000       10.3044684781
  O        10.3021586985        1.7202356065       11.5352788878
  O        14.9938846784        1.7234038522       19.7283973819
  O         9.1488770479        1.7208616889        9.2177429064
  O        13.8794836995        1.7227017603       17.3406036961
  P        10.5223295288        1.7210798701        9.9722281632
  P        15.1592323795        1.7206201829       18.2392045155
 Ca        12.9899100082        1.7019361908        8.1781226272
 Ca        17.5548776117        1.7379337869       16.1733169032
  O        11.0821523068        5.1580968920        7.5720057004
  O        15.7771493017        5.1584340835       15.7429320243
  O        12.4968208213        5.1606759735        5.4261786854
  O        17.1972268617        5.1610847710       13.5692899773
  P        12.5425970789        5.1579272128        7.0358683834
  P        17.2212414994        5.1598799460       15.0902863964
 Ca        15.4481458747        5.1490807464        8.0988508620
 Ca        10.5476624000        5.1608502543       16.3080567081
  O        18.0539963036        5.1585195567        6.0062626605
  O        13.3333370748        5.1575444591       14.2656333500
  O        15.4599299948        5.1577588338        5.8394469323
  O        10.7259959530        5.1509900226       14.0184052331
  P        16.8109541647        5.1589608719        5.0497159060
  P        12.1075388963        5.1642212925       13.2194866617
 Ca        11.7026375763        5.1653069291       10.2324825331
 Ca        16.3551430325        5.1568466019       18.2573949554
  O        13.2748729984        5.1573748206        0.7564603135
  O        17.9721961048        5.1585867275        8.9355969337
  O        14.3325569263        5.1584646955        3.1197222132
  O         0.2624148875        5.1594606177       11.2487251779
  P        13.0537404081        5.1586998514        2.2214429864
  P        17.7360986143        5.1587767337       10.4815681698
 Ca        10.6239471277        5.1594488214        4.1006731582
 Ca        15.3212285489        5.1438638797       12.4371784399
 Ca        14.1135508670       -0.0546894885        4.7769275458
 Ca         9.4410137528        0.0123869981       13.0257843911
 Ca         9.4076166416        3.4491386123        7.5188314096
 Ca        14.1564111895        3.3678364577       15.7040374993
 Ca         9.4060716750        6.8719357744        7.5201769520
 Ca        14.1560376698        6.9514343112       15.7066251555
 Ca        14.1135133244        3.4945588717        4.7788544390
 Ca         9.4379128340        3.4281439842       13.0264005481
  O        14.3269662653        0.7424591413        9.8272992051
  O         9.3260383874        0.9994398637       18.0901173491
  H        13.7625010402        0.3590415135       10.5824011864
  H         9.5991493281        0.6988684102       18.9998243784
  O        14.1306767296        4.6473824672        9.8713851295
  O         9.1693418420        4.4297505898       18.0987085261
  H        14.2648622596        3.6707782539       10.6695429158
  H         9.8779909012        3.9365909059       18.8158133226
  O        14.2371146572       12.7192287001       10.5293954197
  O         9.1884169145       12.7760810892       18.1298828088
  H        14.4067819240       13.4916458322        9.7152095096
  H         9.8814012217       13.1912429156       18.7655434244
  O        14.1544924042        2.7251519022       10.6893787112
  O         9.3501510711        2.4606060660       18.0147921305
  H        13.9951237163        3.0714371998        9.7262571205
  H         9.6336065678        2.7979913719       19.0101932734
  O         0.8166029350        7.3484295582        4.8273677409
  O         5.5070470011        7.3545342627       13.0146542861
  O         6.7592890852        7.3418083274        8.0899696437
  O         2.1279209798        7.2638912687       16.2436472438
  O         1.8759179801        7.3530232904        9.5091313961
  O         6.5184451255        7.3009718893       17.6851154553
  O         3.9185343125       10.7780000097        7.4319973660
  O         8.5840101809       10.7703564604       15.5010006141
  O         7.3738916807       10.7284968502        4.1913995568
  O         2.6790914425       10.7971829838       12.3379680405
  O         2.7745789503       10.7634415520        2.7641269909
  O         7.5287224678       10.7954383846       10.9267821135
  O         3.9195248429       13.2767567024        7.4477820770
  O         8.5834296813       13.3062657613       15.5013733040
  O         7.3739929605       13.3486806370        4.1919781557
  O         2.6839927877       13.2760070229       12.3303247496
  O         2.7762036455       13.3135479657        2.7642656382
  O         7.5559318246       13.3007012621       10.9439720806
  O         0.8160270859        9.8483462038        4.8274838688
  O         5.5154828589        9.8580175011       13.0535664736
  O         6.7378648317        9.8455944879        8.1068765368
  O         2.1346460023        9.9351775376       16.2413488080
  O         1.8884044181        9.8393504728        9.5076647256
  O         6.5223639991        9.8959023409       17.6849215801
  O         3.0653063952        8.5991135768        4.7258563709
  O         7.7476584806        8.5985092934       12.8656742910
  O         1.6228074841        8.5973396533        6.8550694119
  O         6.3079316217        8.5902481259       15.0267387421
  P         1.6094627739        8.5997678931        5.3236368012
  P         6.2931755734        8.6011274022       13.3874562282
 Ca         8.2544334700        8.5991714902        4.1329719976
 Ca         3.4468388583        8.6189110886       12.3578635006
  O         5.5193452661        8.6001482590        6.2006865203
  O         0.8164086713        8.5977965980       14.4780807671
  O         8.1060209185        8.6080009372        6.3989239040
  O         3.3923388553        8.5977761408       14.5849648191
  P         6.7366485546        8.5967244886        7.2207013692
  P         2.0673786419        8.6001977645       15.4271692694
 Ca         2.5041451095        8.5990825416        2.2265692335
 Ca         7.0864927622        8.5918345374       10.2985338985
  O         0.8802577490        8.5995033339       11.5377661910
  O         5.5700859403        8.6026360638       19.7280818008
  O        18.5672089907        8.6046607355        9.2178106202
  O         4.4562187012        8.6000549338       17.3413752490
  P         1.1040993044        8.5977414854        9.9722556691
  P         5.7341022574        8.5987716252       18.2392505383
 Ca         3.5482130013        8.5741966631        8.1312290645
 Ca         8.1332200099        8.6117022881       16.1780691080
  O         1.6548421081       12.0376560355        7.5725348888
  O         6.3528151246       12.0375074265       15.7430617566
  O         3.0729578960       12.0410168862        5.4229205698
  O         7.7820037069       12.0394577717       13.5739090998
  P         3.1213657483       12.0338691553        7.0423132123
  P         7.7973262559       12.0378706774       15.0897551253
 Ca         5.9902783161       12.0337370991        8.1416341250
 Ca         1.1228736176       12.0391277822       16.3101463148
  O         8.6299543608       12.0376972226        6.0068206279
  O         3.9116264432       12.0384048641       14.2683580105
  O         6.0378776062       12.0380228361        5.8447011277
  O         1.2994743447       12.0381559752       14.0181334421
  P         7.3854777042       12.0373605629        5.0533278795
  P         2.6883492602       12.0380376582       13.2112439575
 Ca         2.1972937146       12.0569918386       10.2370471449
 Ca         6.9298608190       12.0399007357       18.2567473555
  O         3.8508007218       12.0362147466        0.7567871462
  O         8.5471419578       12.0372031077        8.9333410804
  O         4.9081182949       12.0374248518        3.1189491984
  O         9.6931805735       12.0289238157       11.2485504564
  P         3.6298334115       12.0375672469        2.2220261241
  P         8.3062111145       12.0420095600       10.4831967876
 Ca         1.1995037002       12.0382908204        4.1000852154
 Ca         5.9012485818       12.0041179755       12.5064060738
 Ca         4.6914227187        6.8244357022        4.7751509537
 Ca         0.0148787346        6.8924682250       13.0262991650
 Ca        -0.0213985873       10.3288553462        7.5186657373
 Ca         4.7324669080       10.2487070417       15.7061606211
 Ca        -0.0231594972       13.7492244953        7.5202628023
 Ca         4.7322197422       13.8285125522       15.7079576855
 Ca         4.6906958089       10.3734472422        4.7772362610
 Ca         0.0124175697       10.3093046315       13.0265977775
  O         4.8486461900        7.6536566130        9.8014606325
  O        -0.0856155585        7.8809628192       18.0815434466
  H         4.3902348104        7.2150249498       10.6000971723
  H         0.1722554215        7.5733892055       19.0033445450
  O         4.3431671083       11.5420810911        9.9959272183
  O        -0.2660617446       11.3099146077       18.0997850406
  H         5.1296100351       10.5361344668       10.4690885027
  H         0.4638090947       10.8160597657       18.8214496565
  O         4.3307496540        5.8137684120       10.4848396576
  O        -0.2437079454        5.8880071887       18.1474863761
  H         5.0350125092        6.6564357511        9.8297010398
  H         0.4653016753        6.3163685819       18.7646094019
  O         4.9715206593        9.6350703255       10.6784821937
  O        -0.0921482247        9.3355860007       18.0135204427
  H         4.2816393547        9.9282372953        9.8398632234
  H         0.2144905163        9.6795196538       19.0121097343
  O        10.2402461694        7.3494959380        4.8270081149
  O        14.9343016861        7.3496361009       13.0183410770
  O        16.1697248149        7.3490535800        8.1030822361
  O        11.5549732851        7.2631089313       16.2424720218
  O        11.2823056194        7.3454791812        9.5019155506
  O        15.9445891701        7.3012013290       17.6856301422
  O        13.3474329199       10.7940065969        7.4542489768
  O        18.0066040577       10.7668833915       15.4982704763
  O        16.7979686251       10.7289819290        4.1919743629
  O        12.0895223601       10.7891743601       12.3465812378
  O        12.1987776323       10.7634946256        2.7637494778
  O        16.9575387385       10.7922354129       10.9293364147
  O        13.3441180061       13.2778240747        7.4496998068
  O        18.0070927388       13.3086896681       15.5002344989
  O        16.7980048414       13.3474693921        4.1921688346
  O        12.1077747489       13.2769581692       12.3262394724
  O        12.2007633883       13.3131568012        2.7636775186
  O        16.9680987719       13.2909159682       10.9376288762
  O        10.2400869120        9.8483677764        4.8269880261
  O        14.9343030737        9.8543998439       13.0427858540
  O        16.1689360217        9.8537184066        8.0984885695
  O        11.5509943397        9.9331160668       16.2446394393
  O        11.3157410401        9.8436737117        9.5117193415
  O        15.9435263418        9.8942542904       17.6845906691
  O        12.4895053657        8.5999801113        4.7246375479
  O        17.1700290742        8.5964152902       12.8667432276
  O        11.0537824845        8.5995898747        6.8581241179
  O        15.7308775789        8.5932316166       15.0218220765
  P        11.0332749476        8.5990350266        5.3269999504
  P        15.7186193185        8.6070029566       13.3933925247
 Ca        17.6779309733        8.5985103181        4.1326208323
 Ca        12.8970141370        8.6014376648       12.3185587030
  O        14.9467198023        8.5999274993        6.2016209921
  O        10.2395445678        8.6004451056       14.4808310865
  O        17.5286380328        8.5999599651        6.4001837281
  O        12.8158790319        8.5996019703       14.5776874080
  P        16.1620593417        8.5985415393        7.2143497462
  P        11.4919865545        8.5988522900       15.4244570922
 Ca        11.9273251286        8.5986857842        2.2279405366
 Ca        16.5265345038        8.5914198369       10.2950884539
  O        10.3009964935        8.6019204976       11.5361774513
  O        14.9939483482        8.5994516088       19.7281183150
  O         9.1476408266        8.6095063320        9.2173199120
  O        13.8793469294        8.5971942024       17.3402162172
  P        10.5248150107        8.5908310722        9.9707274657
  P        15.1587736972        8.5996887419       18.2390932161
 Ca        12.9901519744        8.5824091637        8.1720295434
 Ca        17.5561530189        8.5884265028       16.1793914682
  O        11.0825095029       12.0371398381        7.5723346444
  O        15.7757156384       12.0374362589       15.7435792982
  O        12.4971209743       12.0339932994        5.4261470216
  O        17.1949688780       12.0384016238       13.5680208420
  P        12.5394636229       12.0354551486        7.0332662374
  P        17.2208840171       12.0381938254       15.0868893891
 Ca        15.4289661524       12.0489897845        8.1238213866
 Ca        10.5457085161       12.0372461041       16.3088446498
  O        18.0534219974       12.0370361409        6.0055419567
  O        13.3322167053       12.0390286406       14.2665001194
  O        15.4608357762       12.0373300090        5.8469032319
  O        10.7261571140       12.0409994009       14.0177861900
  P        16.8127841631       12.0375604845        5.0504170579
  P        12.1098014522       12.0329482557       13.2154934506
 Ca        11.6709755766       12.0470964272       10.2302430116
 Ca        16.3443297534       12.0347934639       18.2590741860
  O        13.2749689126       12.0357972295        0.7565583340
  O        17.9706185158       12.0361912182        8.9338315374
  O        14.3325547308       12.0370219420        3.1202479379
  O         0.2585003067       12.0316130308       11.2532955811
  P        13.0536479831       12.0377156444        2.2214503555
  P        17.7362366392       12.0420521777       10.4853394850
 Ca        10.6230355779       12.0380384148        4.1000347727
 Ca        15.2921363997       12.0313645872       12.3994942384
 Ca        14.1134703027        6.8231022637        4.7776108400
 Ca         9.4431044705        6.8908214503       13.0276395680
 Ca         9.4059476518       10.3262159845        7.5175902531
 Ca        14.1593806416       10.2487586646       15.7037998935
 Ca         9.4055924417       13.7491615338        7.5177490838
 Ca        14.1590601349       13.8282436591       15.7056050554
 Ca        14.1135403557       10.3725378019        4.7769324520
 Ca         9.4440854917       10.3053770056       13.0263671431
  O        13.8340039277        7.7732719602        9.9601085969
  O         9.3285762976        7.8449079543       18.0395813598
  H        14.1928417389        7.1872045356       10.5818731624
  H         9.6251710790        7.5308013258       19.0115050231
  O        13.8146608870       11.3642742373       10.4845231063
  O         9.1747532492       11.2975801978       18.1538918545
  H        14.6080350351       10.5448554339       10.0426429889
  H         9.8883219305       10.8777891040       18.7686718016
  O        14.0555140701        5.8386127301       10.6628039625
  O         9.1636173339        5.9006351648       18.1598610628
  H        14.2116397871        6.3801144799        9.8368369428
  H         9.8974042081        6.3764336796       18.7770164897
  O        14.5513810049        9.5727772470       10.3695967205
  O         9.3512869069        9.3275861237       18.0733068652
  H        13.6468257690       10.0114681843       10.1837306765
  H         9.5953376887        9.6277119118       18.9995763655
  O         7.8781522020        6.6027836329       25.4972888910
  C         9.2129473377        7.2650325924       25.4513705070
  O        10.7194166242        8.0150655963       25.4065032287
     387
 i =       16, E =     -6920.3877835395
  O         0.8181536286        0.4699901292        4.8287076424
  O         5.5057001649        0.4657216485       13.0122251690
  O         6.7446536306        0.4662539170        8.1068023193
  O         2.1220635146        0.3941851728       16.2461868185
  O         1.8590682548        0.4690095658        9.5001664159
  O         6.5260014736        0.4233761660       17.6819792611
  O         3.9223856610        3.9105622124        7.4672905406
  O         8.5761052703        3.8884009871       15.4941671704
  O         7.3779508626        3.8550113333        4.1857259623
  O         2.6925172214        3.9200004064       12.3140126692
  O         2.7700006560        3.8837216287        2.7660970455
  O         7.5624759296        3.8998237191       10.9434134322
  O         3.9216001143        6.4028942136        7.4407293608
  O         8.5781761288        6.4274642946       15.5004747867
  O         7.3776489688        6.4631331763        4.1866691869
  O         2.6597028955        6.4287606679       12.3589668654
  O         2.7722956580        6.4350102015        2.7661588889
  O         7.5240136055        6.4069133280       10.9258646316
  O         0.8181738829        2.9705137757        4.8289393023
  O         5.5086719624        2.9872099721       13.0479506822
  O         6.7404979487        2.9763363328        8.1041196102
  O         2.1270638302        3.0502128484       16.2413737023
  O         1.9004019084        2.9701557869        9.5135579099
  O         6.5257340047        3.0131431448       17.6815676713
  O         3.0619783767        1.7214901399        4.7244162960
  O         7.7502791430        1.7179036724       12.8666461485
  O         1.6240854148        1.7217597657        6.8642820146
  O         6.2949180311        1.7142101153       15.0165870006
  P         1.6101931670        1.7194148870        5.3151087426
  P         6.2955456008        1.7309667920       13.4032794723
 Ca         8.2489330324        1.7193209766        4.1325460986
 Ca         3.4626288482        1.7156916123       12.3263159390
  O         5.5210587468        1.7220895245        6.2061792580
  O         0.8094018685        1.7234482865       14.4733706536
  O         8.1005967951        1.7222512094        6.4017915859
  O         3.3947663283        1.7202042532       14.5795159008
  P         6.7368476911        1.7184360185        7.2089027120
  P         2.0702789918        1.7201585324       15.4262251912
 Ca         2.4982030240        1.7194565094        2.2213876274
 Ca         7.1222958709        1.7239860210       10.2989941760
  O         0.8818359475        1.7257931572       11.5348296490
  O         5.5719266031        1.7201764798       19.7255539506
  O        18.5696194188        1.7347488319        9.2145888018
  O         4.4401118039        1.7184532160       17.3497891421
  P         1.0999687359        1.7115196778        9.9788309232
  P         5.7299346839        1.7201606647       18.2337610482
 Ca         3.5564548273        1.6925159560        8.1506237507
 Ca         8.1492175776        1.7087417662       16.1872436147
  O         1.6581643438        5.1560516761        7.5761606143
  O         6.3559628970        5.1592094527       15.7389039724
  O         3.0770780540        5.1474278639        5.4289057432
  O         7.7769522060        5.1616238094       13.5531672824
  P         3.1095918784        5.1585682850        7.0193012299
  P         7.7962041930        5.1583168469       15.0983449525
 Ca         6.0185957121        5.1592516917        8.1236586606
 Ca         1.1345363662        5.1599580292       16.3115883000
  O         8.6330414803        5.1577717522        6.0093940236
  O         3.9070961689        5.1576452644       14.2551127521
  O         6.0319790335        5.1567327203        5.8465851699
  O         1.3065038332        5.1467229583       14.0151508153
  P         7.3897072560        5.1586475707        5.0434544061
  P         2.6867918627        5.1599980414       13.2326426844
 Ca         2.2112948643        5.1612484852       10.2209658480
 Ca         6.9142166992        5.1515759011       18.2687401137
  O         3.8480109243        5.1566842157        0.7545811639
  O         8.5447017453        5.1593778311        8.9338423768
  O         4.9206380216        5.1579507401        3.1133168097
  O         9.6921741959        5.1675847911       11.2490074047
  P         3.6320221147        5.1587470451        2.2263334747
  P         8.3134327377        5.1496207281       10.4841104045
 Ca         1.1901502247        5.1588292830        4.1054791415
 Ca         5.8710825100        5.1559516003       12.4308053745
 Ca         4.6934399959       -0.0450575069        4.7829571029
 Ca         0.0119568790        0.0090282303       13.0226308205
 Ca        -0.0214304982        3.4469255256        7.5210683609
 Ca         4.7287723643        3.3856969055       15.7048845035
 Ca        -0.0220928994        6.8713079481        7.5218464480
 Ca         4.7282907117        6.9321736563       15.7092624709
 Ca         4.6952672548        3.4810472845        4.7795965479
 Ca         0.0122980800        3.4241661147       13.0219182582
  O         4.3282856310        0.7347686801        9.9151458282
  O        -0.1581264409        0.9955145076       18.1290051807
  H         4.8865305410        0.2489013467       10.6224435903
  H         0.2179161902        0.6350813726       18.9543112541
  O         5.1633350011        4.6389504850       10.4222871981
  O        -0.2042478415        4.3699476101       18.1703613655
  H         4.6893907943        3.9609061964        9.8296931844
  H         0.4164536362        4.0203212905       18.7521804217
  O         5.0852639359       12.6021393251       10.4971627194
  O        -0.2122942570       12.7857080150       18.1613828419
  H         4.5359230678       13.3514044537        9.7841412102
  H         0.4413565371       13.2429463966       18.7815907178
  O         5.1579760770        2.5942752478       10.5814879104
  O         0.0213408873        2.4345425956       18.0888727289
  H         4.2875947840        2.9880751256       10.2035205737
  H         0.1346145232        2.7544986436       18.9534498653
  O        10.2424291349        0.4700720037        4.8287598295
  O        14.9273274843        0.4692070755       13.0131998350
  O        16.1859375265        0.4556697539        8.0865492770
  O        11.5445679832        0.3940668721       16.2457093987
  O        11.3102622839        0.4720668176        9.5114128851
  O        15.9411832908        0.4212864846       17.6800458052
  O        13.3427569849        3.8898544119        7.4355380430
  O        18.0039353999        3.8927610929       15.4961559739
  O        16.8040451393        3.8550396740        4.1851607025
  O        12.1163844265        3.9237505657       12.3196804961
  O        12.1940251640        3.8834861097        2.7648556934
  O        16.9534257283        3.9085798984       10.9367258224
  O        13.3453593204        6.3999739031        7.4472946584
  O        18.0042558389        6.4258802152       15.4988740293
  O        16.8038124729        6.4636198180        4.1863659315
  O        12.0926705128        6.4190339380       12.3513314037
  O        12.1959558196        6.4355134816        2.7647840873
  O        16.9531225037        6.4107201943       10.9292393489
  O        10.2418197577        2.9692602703        4.8289708018
  O        14.9366007749        2.9880797568       13.0435435043
  O        16.1571806962        2.9668720650        8.1131790312
  O        11.5524176652        3.0483438253       16.2415736175
  O        11.3100447662        2.9705157480        9.5072366243
  O        15.9570260363        3.0119388311       17.6833049165
  O        12.4856266046        1.7200472911        4.7230880923
  O        17.1713285661        1.7220426365       12.8666153586
  O        11.0529444447        1.7185103890        6.8678096797
  O        15.7154709484        1.7138138943       15.0112507832
  P        11.0336840631        1.7200734333        5.3164957066
  P        15.7234780095        1.7208071330       13.4116197544
 Ca        17.6721819794        1.7202576864        4.1328048280
 Ca        12.8718668812        1.7262680111       12.3448307289
  O        14.9493461492        1.7216872315        6.2069408111
  O        10.2347826874        1.7194635961       14.4751802979
  O        17.5241512366        1.7322102166        6.4006785505
  O        12.8198359957        1.7199525920       14.5741625483
  P        16.1665387833        1.7144748953        7.1984989735
  P        11.4918596534        1.7212620394       15.4264270472
 Ca        11.9212837735        1.7200486032        2.2228133547
 Ca        16.4788882794        1.7102023586       10.3072523895
  O        10.3038329785        1.7203220743       11.5321027053
  O        14.9954005365        1.7243928821       19.7258630564
  O         9.1540157857        1.7209375566        9.2122909385
  O        13.8635578034        1.7240550662       17.3489871441
  P        10.5165920657        1.7219529046        9.9788861963
  P        15.1554320128        1.7186518865       18.2343599130
 Ca        12.9874374933        1.6975515402        8.1758965103
 Ca        17.5724057360        1.7358183104       16.1827458356
  O        11.0836390034        5.1572559422        7.5729709642
  O        15.7818248182        5.1582844416       15.7383132931
  O        12.5006815867        5.1606836967        5.4285393033
  O        17.2025815874        5.1617410008       13.5537658202
  P        12.5380821483        5.1559768352        7.0226625237
  P        17.2220071235        5.1601585509       15.1004001209
 Ca        15.4533247319        5.1491573284        8.0989717029
 Ca        10.5583681539        5.1609117371       16.3119463594
  O        18.0577415161        5.1584978456        6.0096123927
  O        13.3311813709        5.1572254852       14.2554778666
  O        15.4560435177        5.1573027758        5.8395783154
  O        10.7328244509        5.1488756338       14.0177926154
  P        16.8126998855        5.1590170869        5.0405127322
  P        12.1048023746        5.1657803062       13.2378678285
 Ca        11.7103132051        5.1681200160       10.2302220271
 Ca        16.3460791578        5.1571436940       18.2668737873
  O        13.2720262555        5.1571588859        0.7541363932
  O        17.9712759307        5.1585332496        8.9370915839
  O        14.3449726882        5.1583340033        3.1134359696
  O         0.2531328357        5.1601995901       11.2530067818
  P        13.0563790856        5.1586900643        2.2261881359
  P        17.7364615103        5.1584316613       10.4811382580
 Ca        10.6163737555        5.1595374857        4.1080889427
 Ca        15.3182884933        5.1419280462       12.4392961354
 Ca        14.1159018960       -0.0430654075        4.7841172651
 Ca         9.4402234487        0.0125187701       13.0210912624
 Ca         9.4084747337        3.4497053155        7.5235489521
 Ca        14.1485828438        3.3847041648       15.7036480169
 Ca         9.4077470650        6.8721490901        7.5259786712
 Ca        14.1480156537        6.9347422466       15.7065023444
 Ca        14.1153828932        3.4830520606        4.7865963988
 Ca         9.4357929818        3.4282646600       13.0218829001
  O        14.3345642890        0.7760518834        9.7782504583
  O         9.3528966006        0.9755753462       18.1327994506
  H        13.7424834650        0.3960147256       10.6090186573
  H         9.5793218535        0.6988330522       18.9629917687
  O        14.1332347583        4.6350236596        9.8407181662
  O         9.2191936078        4.3755249010       18.1529902142
  H        14.2739142555        3.6999754284       10.7172603087
  H         9.8333074320        3.9630918721       18.7774073159
  O        14.2375617235       12.7030078095       10.5597421128
  O         9.2312839890       12.8393462880       18.1716193711
  H        14.4249760459       13.4822772868        9.6765083929
  H         9.8408603965       13.1676784744       18.7293080001
  O        14.1588424573        2.6887981644       10.7042583063
  O         9.3852730990        2.4772218786       18.0913791258
  H        13.9812567332        3.0603079611        9.7066107857
  H         9.6101664213        2.8003833869       18.9436641832
  O         0.8186408114        7.3480758544        4.8287586250
  O         5.5018351516        7.3480101147       13.0072296618
  O         6.7608863177        7.3344972997        8.0913678086
  O         2.1222002381        7.2713605142       16.2444894914
  O         1.8791337367        7.3478375572        9.5096593702
  O         6.5236815059        7.3024468397       17.6816855601
  O         3.9179434116       10.7680029591        7.4280463776
  O         8.5792655948       10.7712510705       15.4994104100
  O         7.3785754943       10.7338123205        4.1852539002
  O         2.6800016769       10.7851828839       12.3378312142
  O         2.7698997028       10.7622842746        2.7654448714
  O         7.5260559715       10.7907362808       10.9246201909
  O         3.9202718351       13.2807054970        7.4444379652
  O         8.5786167945       13.3048957612       15.4998761688
  O         7.3787000535       13.3431932973        4.1859587626
  O         2.6854939441       13.2843070914       12.3286560630
  O         2.7716618933       13.3147051284        2.7654367571
  O         7.5590616468       13.3043232965       10.9455410118
  O         0.8177263677        9.8484474200        4.8288525189
  O         5.5131649348        9.8653551498       13.0559545794
  O         6.7359823891        9.8499312651        8.1109532477
  O         2.1291648675        9.9269202338       16.2414935674
  O         1.8933461086        9.8426605279        9.5084062071
  O         6.5275738520        9.8945995413       17.6812694270
  O         3.0614858460        8.5987049753        4.7245006556
  O         7.7485010118        8.5985342890       12.8650392318
  O         1.6196873519        8.5964766860        6.8644450287
  O         6.2944233273        8.5874149633       15.0151610141
  P         1.6091714443        8.5998247403        5.3120151283
  P         6.3010810809        8.6008862186       13.4082375186
 Ca         8.2488818874        8.5994936053        4.1339332932
 Ca         3.4463432467        8.6252912282       12.3524746009
  O         5.5216757464        8.5994796649        6.2060914890
  O         0.8103849674        8.5973232603       14.4733751353
  O         8.0999028102        8.6100673235        6.4017193340
  O         3.3967595084        8.5973051995       14.5792572468
  P         6.7398074623        8.5973561362        7.2058808413
  P         2.0675520272        8.6006493879       15.4286998773
 Ca         2.4980823464        8.5993171789        2.2213764015
 Ca         7.0790137155        8.5911246010       10.2996448781
  O         0.8812885496        8.5995400967       11.5334928175
  O         5.5717354596        8.6032335339       19.7254536575
  O        18.5720186489        8.6056443968        9.2146756000
  O         4.4398813645        8.6003110691       17.3495226199
  P         1.0946793752        8.5981844143        9.9798767519
  P         5.7308375167        8.5985851049       18.2346063702
 Ca         3.5496864626        8.5703797100        8.1280660321
 Ca         8.1507591925        8.6106031220       16.1895561109
  O         1.6558183300       12.0368402232        7.5733912762
  O         6.3573932647       12.0372642975       15.7379087336
  O         3.0763536039       12.0414398951        5.4262100029
  O         7.7899982150       12.0396098178       13.5584016541
  P         3.1156981758       12.0337097233        7.0275621272
  P         7.7997269099       12.0385550407       15.1026829034
 Ca         5.9849120112       12.0330249626        8.1567553338
 Ca         1.1354705698       12.0395004104       16.3144066586
  O         8.6342064094       12.0376943281        6.0092728191
  O         3.9086451925       12.0382050800       14.2575394615
  O         6.0335510165       12.0378812605        5.8467434692
  O         1.3069815438       12.0385090807       14.0157132802
  P         7.3876099278       12.0377874245        5.0452427569
  P         2.6857690132       12.0407056717       13.2316242146
 Ca         2.1961721276       12.0625038712       10.2341430841
 Ca         6.9218371516       12.0398295257       18.2662444393
  O         3.8478485452       12.0359759724        0.7545210642
  O         8.5460556965       12.0372453704        8.9349849397
  O         4.9206537883       12.0372789997        3.1124215276
  O         9.6854890225       12.0266915855       11.2518212180
  P         3.6324089383       12.0375221084        2.2267624425
  P         8.3099104883       12.0462219992       10.4831492754
 Ca         1.1925796445       12.0384033883        4.1076477294
 Ca         5.8934354826       12.0021053997       12.5120493514
 Ca         4.6944308093        6.8361706819        4.7824834505
 Ca         0.0162340146        6.8928514687       13.0234359261
 Ca        -0.0201602400       10.3298889519        7.5226659756
 Ca         4.7249656938       10.2656012525       15.7064052267
 Ca        -0.0208746751       13.7490913626        7.5255720631
 Ca         4.7246113951       13.8121296226       15.7076780200
 Ca         4.6930670374       10.3626564746        4.7857901624
 Ca         0.0120705236       10.3100930956       13.0239116418
  O         4.8768440481        7.6691056403        9.7723657435
  O        -0.0583173668        7.8771764618       18.1246957786
  H         4.3762700767        7.2460433680       10.6225820784
  H         0.1539369343        7.5720536400       18.9684059124
  O         4.3398326998       11.5474213743        9.9552358550
  O        -0.2258806960       11.2797088557       18.1428715767
  H         5.1298153799       10.5638690337       10.4947743685
  H         0.4262116221       10.8431695030       18.7929795172
  O         4.3248730187        5.7861191977       10.4859796141
  O        -0.2039251618        5.9313970762       18.1894079529
  H         5.0237757707        6.6623901684        9.8173982621
  H         0.4292946020        6.2943659829       18.7349182500
  O         4.9915480015        9.5847003226       10.6901786124
  O        -0.0604376813        9.3372942996       18.0781717086
  H         4.2591463769        9.9264821318        9.8318471034
  H         0.1947875739        9.6840017708       18.9527406914
  O        10.2420415816        7.3490399206        4.8279915679
  O        14.9312364847        7.3426317211       13.0109885959
  O        16.1702996772        7.3437729608        8.1068675371
  O        11.5499034061        7.2706212553       16.2432200413
  O        11.2769121635        7.3388816331        9.5014064888
  O        15.9501356265        7.3018802707       17.6821834102
  O        13.3481102542       10.7892107246        7.4541901294
  O        18.0012646998       10.7672383272       15.4956368212
  O        16.8025024287       10.7343382941        4.1859715242
  O        12.0874403830       10.7765381226       12.3522347733
  O        12.1942265272       10.7626064198        2.7651821734
  O        16.9571278269       10.7905065693       10.9257749338
  O        13.3450251610       13.2834823551        7.4501425729
  O        18.0017120307       13.3083804938       15.4977124082
  O        16.8025116805       13.3421452422        4.1863387904
  O        12.1093006589       13.2864203435       12.3247379629
  O        12.1963283173       13.3141751547        2.7651092172
  O        16.9682503466       13.2962482654       10.9360687192
  O        10.2419631025        9.8487894955        4.8280610983
  O        14.9311719868        9.8615545217       13.0415080571
  O        16.1693644806        9.8585620181        8.0999194355
  O        11.5460379930        9.9254874699       16.2454540672
  O        11.3185096923        9.8454442292        9.5136662557
  O        15.9486488652        9.8917953146       17.6808554628
  O        12.4858395428        8.6000406043        4.7225684611
  O        17.1726931044        8.5955290676       12.8656887612
  O        11.0516782099        8.5996510592        6.8657938569
  O        15.7176149373        8.5905428880       15.0117636602
  P        11.0338692589        8.5990869532        5.3180968519
  P        15.7218021770        8.6079629212       13.4101642983
 Ca        17.6723797089        8.5985746395        4.1327205519
 Ca        12.8975187742        8.6037003540       12.3074700999
  O        14.9492630923        8.5997163226        6.2057792072
  O        10.2329872757        8.6005052248       14.4768328005
  O        17.5244851927        8.5995707891        6.4022299278
  O        12.8189245615        8.5994706894       14.5728452894
  P        16.1619961592        8.5998797994        7.2046708175
  P        11.4938279831        8.5991801741       15.4241111837
 Ca        11.9213167628        8.5986501127        2.2231360261
 Ca        16.5252040877        8.5908291546       10.2952948414
  O        10.3014086176        8.6023396388       11.5335421327
  O        14.9954873387        8.5992163038       19.7255125394
  O         9.1479001709        8.6127248601        9.2124288226
  O        13.8634468188        8.5965393402       17.3486779654
  P        10.5214280799        8.5909103262        9.9770248153
  P        15.1548547572        8.5999120139       18.2342677953
 Ca        12.9920024074        8.5799277095        8.1733727976
 Ca        17.5732669292        8.5899319729       16.1894231930
  O        11.0834811804       12.0374344305        7.5732825837
  O        15.7801159277       12.0374175968       15.7391460475
  O        12.5010241209       12.0334769645        5.4287839132
  O        17.1995487420       12.0386759407       13.5512579934
  P        12.5346896584       12.0325352414        7.0201190750
  P        17.2215688057       12.0383133186       15.0972517415
 Ca        15.4275849278       12.0469130691        8.1326996885
 Ca        10.5569655128       12.0368333240       16.3110083306
  O        18.0575544475       12.0369220559        6.0085813239
  O        13.3291568741       12.0398168056       14.2563348217
  O        15.4575034540       12.0374553142        5.8493627061
  O        10.7325594919       12.0431059988       14.0173252420
  P        16.8139275627       12.0374682520        5.0424319455
  P        12.1080543422       12.0328380637       13.2325071128
 Ca        11.6731963550       12.0475438785       10.2279821703
 Ca        16.3359329002       12.0349769408       18.2690514981
  O        13.2721469951       12.0354929486        0.7542506741
  O        17.9694484660       12.0362544025        8.9357228351
  O        14.3449206414       12.0369283664        3.1140095554
  O         0.2491650058       12.0301226412       11.2596773570
  P        13.0563271915       12.0376132250        2.2262410587
  P        17.7361259618       12.0414034924       10.4846963215
 Ca        10.6149250626       12.0378859028        4.1072633512
 Ca        15.2823793197       12.0270665216       12.3924210443
 Ca        14.1154997250        6.8349331112        4.7855186662
 Ca         9.4437046655        6.8908277890       13.0234211670
 Ca         9.4071076663       10.3264032184        7.5225135465
 Ca        14.1524389887       10.2662331216       15.7025328759
 Ca         9.4054970568       13.7485418844        7.5221607205
 Ca        14.1521335725       13.8101785459       15.7055249683
 Ca        14.1158856375       10.3605382188        4.7847282980
 Ca         9.4456901444       10.3052215490       13.0217211852
  O        13.7999623307        7.7684074848        9.9055010234
  O         9.3654979397        7.8230275166       18.1118589461
  H        14.2106586071        7.2318042357       10.6367544314
  H         9.5990038657        7.5340903306       18.9462685914
  O        13.7942402164       11.3925405155       10.4813232849
  O         9.2188359264       11.2376387818       18.2017195028
  H        14.6395924045       10.5439607168       10.0612405176
  H         9.8484672580       10.8995155979       18.7345873142
  O        14.0549777252        5.8047323671       10.6479249791
  O         9.2118062238        5.9590297067       18.2085301158
  H        14.1968161965        6.3831655393        9.8447087940
  H         9.8538425908        6.3451245963       18.7414487393
  O        14.5910109435        9.5596584980       10.3558092142
  O         9.3784055021        9.3503094177       18.1216174460
  H        13.6192932761        9.9919406390       10.1917320932
  H         9.5746767305        9.6285315917       18.9584683222
  O         7.9300029680        6.6270227737       25.4955782238
  C         9.1912683603        7.2543382097       25.4531371701
  O        10.6879603747        8.0020692302       25.4087495326
     387
 i =       17, E =     -6920.5625807966
  O         0.8134745607        0.4758256654        4.8265983573
  O         5.4924727163        0.4542938713       13.0024775617
  O         6.7552093917        0.4577338434        8.1090903340
  O         2.1335256451        0.3805809990       16.2219178054
  O         1.8450372538        0.4560395351        9.4864073405
  O         6.5057394479        0.4196533700       17.6822258275
  O         3.9289222506        3.9094546236        7.4770332673
  O         8.5744567077        3.8972828448       15.4803825049
  O         7.3775671264        3.8435352892        4.1971425860
  O         2.6886078642        3.9113606875       12.2995723940
  O         2.7633278641        3.8943888377        2.7710611777
  O         7.5727376356        3.8969911436       10.9502876864
  O         3.9293194958        6.4099315115        7.4463587750
  O         8.5768103253        6.4188010590       15.4864552758
  O         7.3770772176        6.4748567727        4.1983289152
  O         2.6520921755        6.4481443681       12.3579222708
  O         2.7657694452        6.4244863270        2.7714644275
  O         7.5201870389        6.4131196065       10.9246989111
  O         0.8138046239        2.9648712742        4.8268547117
  O         5.4972750216        3.0002542013       13.0539610732
  O         6.7497691309        2.9833183706        8.1038534696
  O         2.1378486767        3.0669436149       16.2177692938
  O         1.9011652939        2.9747533273        9.5058643252
  O         6.5057889301        3.0162012279       17.6816578909
  O         3.0647361801        1.7220724785        4.7289780549
  O         7.7511495380        1.7173540054       12.8630615108
  O         1.6265228365        1.7224197067        6.8728720317
  O         6.2887235980        1.7096823748       14.9795645146
  P         1.6182189090        1.7197810608        5.2954137188
  P         6.3053881778        1.7336591231       13.4577895385
 Ca         8.2554383618        1.7188878503        4.1390848112
 Ca         3.4712047900        1.7165653970       12.3173666264
  O         5.5296698607        1.7226989763        6.2062689370
  O         0.8142718606        1.7245805418       14.4817250258
  O         8.0941477392        1.7228355722        6.4092020821
  O         3.3997072304        1.7198654939       14.5752905735
  P         6.7395728425        1.7204598148        7.1746013919
  P         2.0758901341        1.7193236119       15.4652877928
 Ca         2.5206470578        1.7191562732        2.2350684701
 Ca         7.1215430416        1.7246657650       10.2935253458
  O         0.8820478877        1.7273673687       11.5197788941
  O         5.5703909122        1.7204530589       19.7380713622
  O        18.5719732747        1.7413887345        9.2173802948
  O         4.4457341081        1.7184264847       17.3276880996
  P         1.0802504231        1.7166568357       10.0013358222
  P         5.7326475387        1.7189632959       18.2496605340
 Ca         3.5577157622        1.6878023737        8.1447737710
 Ca         8.1425659879        1.7096386920       16.2111269353
  O         1.6651306852        5.1561460596        7.5771735493
  O         6.3565092996        5.1595918626       15.7346288291
  O         3.0692120732        5.1435568872        5.4510776389
  O         7.7684072714        5.1634752009       13.5249042336
  P         3.0961199058        5.1521229465        6.9937740049
  P         7.7838478058        5.1579654484       15.1285116059
 Ca         6.0296272751        5.1591014447        8.1078226772
 Ca         1.1189269553        5.1594386901       16.2892053712
  O         8.6229783047        5.1576066982        6.0015175620
  O         3.8845318456        5.1581181140       14.2440083573
  O         6.0316613834        5.1563810344        5.8499324958
  O         1.3201591325        5.1421455211       14.0029408137
  P         7.3942475007        5.1577387420        5.0082222730
  P         2.6882826437        5.1590866118       13.2920567267
 Ca         2.1938586401        5.1614530149       10.2184608051
 Ca         6.9212607201        5.1528143549       18.2499847114
  O         3.8455565435        5.1560770017        0.7323692298
  O         8.5464965145        5.1595517334        8.9341745551
  O         4.9040846002        5.1577554950        3.1459867632
  O         9.6820834490        5.1720697068       11.2428595826
  P         3.6324123722        5.1583596685        2.2122391225
  P         8.3326186157        5.1455397883       10.4891605116
 Ca         1.2063493635        5.1584388380        4.0959870645
 Ca         5.8734423256        5.1517037953       12.4393143517
 Ca         4.6895805484       -0.0816402833        4.7711062924
 Ca         0.0131128833        0.0105284433       13.0250904970
 Ca        -0.0228593523        3.4464750191        7.5167797001
 Ca         4.7339764439        3.3393783187       15.7086981273
 Ca        -0.0258839298        6.8710233915        7.5163386764
 Ca         4.7327629407        6.9768091941       15.7165811001
 Ca         4.6925276383        3.5153414080        4.7655817626
 Ca         0.0151598923        3.4212592591       13.0236346801
  O         4.3029200675        0.7393219705        9.8989369391
  O        -0.1868411609        0.9909812070       18.0888624972
  H         4.8877297262        0.3020789909       10.6619623121
  H         0.2464618305        0.6884027658       19.0152783684
  O         5.2042658901        4.6316668964       10.4059045376
  O        -0.2493075999        4.2961393928       18.1252763294
  H         4.7049906145        3.9945158319        9.8138316734
  H         0.4815713323        4.0313891443       18.8139582244
  O         5.1702636878       12.5602514367       10.5297026321
  O        -0.2429790642       12.8290539918       18.1313861613
  H         4.5042175678       13.3632782859        9.7414798179
  H         0.4938829474       13.2141204703       18.8316377129
  O         5.1357185906        2.5743030179       10.5875779199
  O         0.0225368319        2.4430558101       18.0238945119
  H         4.2904494267        2.9416865501       10.2310858486
  H         0.1494066539        2.7007544490       19.0309241394
  O        10.2384331905        0.4754516238        4.8265879124
  O        14.9137839677        0.4620309280       13.0022954954
  O        16.1982211358        0.4479756040        8.0851817296
  O        11.5586990657        0.3791614748       16.2216913489
  O        11.3120284235        0.4671588261        9.5030460976
  O        15.9217269711        0.4183930838       17.6797463410
  O        13.3467045101        3.8857385574        7.4369827918
  O        18.0030855867        3.9007060365       15.4832159098
  O        16.8041208979        3.8431157834        4.1966186253
  O        12.1142296739        3.9145091791       12.3079746111
  O        12.1872411412        3.8939219965        2.7696714585
  O        16.9522688798        3.9063592007       10.9379005296
  O        13.3537799273        6.4015551369        7.4504698398
  O        18.0041012159        6.4185075247       15.4857862827
  O        16.8037440307        6.4755679938        4.1976558044
  O        12.0864752455        6.4354818886       12.3503192635
  O        12.1895434050        6.4249356846        2.7694042211
  O        16.9511771676        6.4139133921       10.9278355690
  O        10.2375044614        2.9639392631        4.8267535470
  O        14.9266685202        2.9962171759       13.0405732098
  O        16.1625839077        2.9681469282        8.1170579795
  O        11.5650760427        3.0641857353       16.2173256524
  O        11.3118887512        2.9750675353        9.4995828177
  O        15.9387984479        3.0162237417       17.6824192573
  O        12.4886185125        1.7198133042        4.7274061053
  O        17.1728886807        1.7231827348       12.8605557564
  O        11.0580278088        1.7174873736        6.8753351519
  O        15.7098119873        1.7117260555       14.9759561370
  P        11.0425755899        1.7200259604        5.2992928235
  P        15.7296815658        1.7222511766       13.4651848079
 Ca        17.6792966134        1.7202088603        4.1370494333
 Ca        12.8609959261        1.7292025396       12.3597692537
  O        14.9586102464        1.7212024130        6.2076761795
  O        10.2406578203        1.7195712265       14.4832644168
  O        17.5199648349        1.7368113269        6.4070598760
  O        12.8239193482        1.7200390175       14.5726663531
  P        16.1676858834        1.7157934187        7.1644972484
  P        11.4978967698        1.7207324416       15.4655889015
 Ca        11.9441276985        1.7201682598        2.2367258458
 Ca        16.4770484596        1.7081384397       10.3035328847
  O        10.3053702713        1.7206425902       11.5183304135
  O        14.9934718098        1.7263818492       19.7380772586
  O         9.1595363364        1.7211026025        9.2097664719
  O        13.8704607968        1.7266717120       17.3275173089
  P        10.5057300178        1.7245723664       10.0014798739
  P        15.1563632314        1.7143507671       18.2502631826
 Ca        12.9757912909        1.6914971127        8.1622194049
 Ca        17.5653066008        1.7321661822       16.2030435608
  O        11.0906959342        5.1557595441        7.5730995526
  O        15.7840888807        5.1579868549       15.7332328420
  O        12.4928483790        5.1601999914        5.4463987579
  O        17.1952485997        5.1629294695       13.5274489072
  P        12.5275207228        5.1499859565        6.9998771797
  P        17.2058384915        5.1601527842       15.1285449384
 Ca        15.4639417717        5.1520822742        8.0755234057
 Ca        10.5363826913        5.1609183782       16.2952581495
  O        18.0476416834        5.1584604239        6.0031074762
  O        13.3113292709        5.1567849663       14.2462839909
  O        15.4572780545        5.1565145639        5.8399065186
  O        10.7455924317        5.1452594940       14.0071635908
  P        16.8157756066        5.1588581113        5.0045065394
  P        12.1064052889        5.1662907947       13.2952890266
 Ca        11.7060201958        5.1738215505       10.2270290783
 Ca        16.3464271695        5.1582294425       18.2484892442
  O        13.2696158406        5.1567024094        0.7319850919
  O        17.9750676791        5.1583437971        8.9370688507
  O        14.3281779618        5.1581524259        3.1456154650
  O         0.2385409444        5.1614089803       11.2509573302
  P        13.0571395514        5.1586077811        2.2123590013
  P        17.7437224272        5.1560569645       10.4854834934
 Ca        10.6331874160        5.1596485885        4.1001218162
 Ca        15.3243732399        5.1437393552       12.4492615797
 Ca        14.1116214181       -0.0790637046        4.7702878442
 Ca         9.4405035902        0.0136523711       13.0207840682
 Ca         9.4057043684        3.4511671764        7.5203005964
 Ca        14.1512931767        3.3394624215       15.7091502552
 Ca         9.4065194954        6.8717963900        7.5248641028
 Ca        14.1503332258        6.9802192784       15.7125712668
 Ca        14.1100705841        3.5187574561        4.7735459211
 Ca         9.4340766694        3.4272778278       13.0216346770
  O        14.3242679646        0.8878939872        9.7560007077
  O         9.3303545292        0.9251517145       18.0556921110
  H        13.7414434482        0.4134761555       10.5973402258
  H         9.6054551212        0.7464395813       19.0590264095
  O        14.1335273843        4.6077491215        9.7849806131
  O         9.2079612906        4.2786806429       18.1375927100
  H        14.2893582476        3.7543442516       10.7742986785
  H         9.8693843897        3.9936251580       18.8092961278
  O        14.2351030216       12.6712071721       10.6096759524
  O         9.1757328979       12.9400806353       18.1135731039
  H        14.4488560126       13.4693486728        9.6228487601
  H         9.9174286127       13.1661779129       18.7981472589
  O        14.1522618851        2.6030756664       10.6879181062
  O         9.3808678516        2.5215050862       18.0591837855
  H        13.9739855546        3.0503991291        9.7226538146
  H         9.6266066368        2.7403865829       18.9987295804
  O         0.8147984047        7.3536788238        4.8271454503
  O         5.4862755048        7.3399736142       12.9943702254
  O         6.7713325404        7.3271728545        8.0910530678
  O         2.1341039636        7.2556307206       16.2206770256
  O         1.8821767395        7.3404160253        9.5003870949
  O         6.5034085320        7.2988951926       17.6819277192
  O         3.9219197033       10.7599407967        7.4288147020
  O         8.5784580067       10.7785407896       15.4864078390
  O         7.3784837148       10.7218841704        4.1967253702
  O         2.6749665430       10.7712004859       12.3299104838
  O         2.7629508006       10.7724677978        2.7702721478
  O         7.5230600279       10.7848180590       10.9245632004
  O         3.9278269471       13.2829354169        7.4459878042
  O         8.5779433353       13.2971773209       15.4867491663
  O         7.3785977000       13.3545159252        4.1975939264
  O         2.6799949819       13.2964112608       12.3180268002
  O         2.7651721841       13.3042622942        2.7698908388
  O         7.5633778689       13.3087237248       10.9521922617
  O         0.8132044462        9.8427605309        4.8269858681
  O         5.5020175898        9.8723340477       13.0579025066
  O         6.7412549041        9.8542322851        8.1161145920
  O         2.1400714503        9.9410343398       16.2167489978
  O         1.8992149184        9.8489105230        9.5001567670
  O         6.5069732749        9.8982611070       17.6806981955
  O         3.0641675608        8.5980739768        4.7300955853
  O         7.7476075936        8.5985867653       12.8594954948
  O         1.6232645470        8.5950377590        6.8745380424
  O         6.2878323664        8.5826506196       14.9752390833
  P         1.6163777705        8.5995454123        5.2910427988
  P         6.3138439906        8.6017024568       13.4690997423
 Ca         8.2557498847        8.6000014794        4.1399390080
 Ca         3.4438858546        8.6323094879       12.3631687046
  O         5.5310520810        8.5981662879        6.2089333109
  O         0.8160581014        8.5968037768       14.4813583641
  O         8.0920365133        8.6136106290        6.4093877763
  O         3.4021182626        8.5966750414       14.5739227039
  P         6.7454123501        8.5979013879        7.1655903134
  P         2.0728181705        8.6015225051       15.4683931540
 Ca         2.5206885223        8.5996691782        2.2346016700
 Ca         7.0832650374        8.5884043790       10.2932859421
  O         0.8822521201        8.5999671728       11.5170352901
  O         5.5699687048        8.6042466520       19.7380882594
  O        18.5800737450        8.6072658825        9.2164874680
  O         4.4453912857        8.6005372123       17.3267163354
  P         1.0742570474        8.5983321516       10.0039203890
  P         5.7344125012        8.5985151213       18.2503633925
 Ca         3.5436693062        8.5646695906        8.1118552806
 Ca         8.1465506842        8.6089358263       16.2168590533
  O         1.6637487428       12.0352417209        7.5736767428
  O         6.3587467829       12.0367473747       15.7316597914
  O         3.0678096577       12.0414247631        5.4480288895
  O         7.7841401657       12.0397279482       13.5316348010
  P         3.1014142318       12.0307864498        6.9987566781
  P         7.7874426883       12.0392942648       15.1350914609
 Ca         5.9821529583       12.0347284263        8.1537061154
 Ca         1.1190544908       12.0400462201       16.2969552515
  O         8.6248846572       12.0375556990        6.0009666938
  O         3.8863004210       12.0379304740       14.2455332209
  O         6.0333348173       12.0375352846        5.8511054986
  O         1.3228233888       12.0389690532       14.0016010988
  P         7.3917723252       12.0386573933        5.0104287914
  P         2.6862427165       12.0413017612       13.2953223137
 Ca         2.1911600195       12.0699007136       10.2291844230
 Ca         6.9281018777       12.0394927946       18.2477964277
  O         3.8452809432       12.0354683400        0.7323786264
  O         8.5487625289       12.0374542441        8.9359476959
  O         4.9042366257       12.0369903765        3.1448112155
  O         9.6708705870       12.0231370559       11.2476150710
  P         3.6328590214       12.0375312860        2.2125473532
  P         8.3256335863       12.0501510380       10.4883392333
 Ca         1.2102195758       12.0386873368        4.0995439349
 Ca         5.8890058967       12.0099286960       12.5105447208
 Ca         4.6913720548        6.8002883540        4.7681496172
 Ca         0.0197401812        6.8943103224       13.0264882297
 Ca        -0.0233547943       10.3319871884        7.5173044363
 Ca         4.7286291249       10.2200891066       15.7139180344
 Ca        -0.0220816401       13.7488269056        7.5228182960
 Ca         4.7282440823       13.8585805158       15.7142993789
 Ca         4.6889567006       10.3999048732        4.7734665330
 Ca         0.0122566839       10.3096648409       13.0273646931
  O         4.8903827678        7.7463755216        9.7667976815
  O        -0.0778843470        7.8682950211       18.0527535990
  H         4.3625249447        7.2780427330       10.6313424513
  H         0.1802835894        7.6213974991       19.0617613699
  O         4.2809001687       11.5375009560        9.8925854695
  O        -0.2536918709       11.2308204773       18.1167176697
  H         5.1630507709       10.6217807684       10.5260745289
  H         0.4701918405       10.8781952352       18.8373849947
  O         4.2717407267        5.7529736802       10.5180165776
  O        -0.2612425908        6.0018711012       18.1395637033
  H         5.0488402304        6.6399559031        9.7614339511
  H         0.5054200512        6.2901770481       18.8022481184
  O         4.9528394275        9.5023458291       10.6658428121
  O        -0.0703289414        9.3454358482       18.0396349875
  H         4.2751376533        9.9097875926        9.8667773443
  H         0.2177645386        9.6271389699       19.0099326830
  O        10.2376702557        7.3546903862        4.8256863440
  O        14.9188277420        7.3336433144       12.9989373385
  O        16.1819168868        7.3375025272        8.1093702694
  O        11.5628332075        7.2553294466       16.2187677035
  O        11.2638675867        7.3282842138        9.4904437436
  O        15.9316750599        7.2967334753       17.6819337625
  O        13.3549473773       10.7857552148        7.4596453203
  O        17.9999940881       10.7744639923       15.4808529635
  O        16.8021999476       10.7221882636        4.1971981831
  O        12.0791600876       10.7604217623       12.3532777060
  O        12.1875239065       10.7730952637        2.7700037828
  O        16.9573423543       10.7877107243       10.9234307089
  O        13.3514965179       13.2866460619        7.4553770698
  O        18.0001994957       13.3011543317       15.4826386204
  O        16.8021681191       13.3539642394        4.1980984490
  O        12.1030461165       13.2986818424       12.3160281717
  O        12.1898925173       13.3037488410        2.7699481430
  O        16.9696619567       13.3027550623       10.9364268605
  O        10.2377287753        9.8432102293        4.8256372517
  O        14.9188251720        9.8695688624       13.0370531554
  O        16.1806127354        9.8640134960        8.0997954217
  O        11.5600098900        9.9408977114       16.2210156511
  O        11.3193940331        9.8494634033        9.5060221042
  O        15.9294528349        9.8936538898       17.6802228550
  O        12.4885724087        8.6001932409        4.7265023236
  O        17.1748127570        8.5943926000       12.8599156459
  O        11.0550338530        8.5997755446        6.8730001340
  O        15.7120844183        8.5860382482       14.9763099927
  P        11.0428000120        8.5991974076        5.2997897093
  P        15.7286238985        8.6090482609       13.4618461072
 Ca        17.6789509047        8.5986924966        4.1375865308
 Ca        12.8965036284        8.6060462441       12.3054407389
  O        14.9589546181        8.5992578093        6.2056197905
  O        10.2374246783        8.6005535007       14.4858062192
  O        17.5202643487        8.5989873678        6.4091066994
  O        12.8234101344        8.5992040913       14.5695585798
  P        16.1622010444        8.6024151287        7.1728059239
  P        11.5002225284        8.5995614365       15.4628376764
 Ca        11.9440069405        8.5985945160        2.2373468285
 Ca        16.5283975072        8.5884346274       10.2885343939
  O        10.3018042264        8.6029699702       11.5197113502
  O        14.9936314861        8.5988864789       19.7376225337
  O         9.1466179105        8.6181946140        9.2120713059
  O        13.8704087908        8.5955713754       17.3272669477
  P        10.5082004597        8.5912783658        9.9996226735
  P        15.1557384029        8.6006048246       18.2502900664
 Ca        12.9876594181        8.5791045983        8.1627480665
 Ca        17.5648878742        8.5917971952       16.2096258089
  O        11.0894531175       12.0377340388        7.5733890969
  O        15.7822161439       12.0372357542       15.7343065981
  O        12.4932647833       12.0324895783        5.4474457726
  O        17.1905901573       12.0391799971       13.5226555900
  P        12.5244576626       12.0295283523        6.9982111555
  P        17.2052405849       12.0386039193       15.1262418847
 Ca        15.4292709447       12.0426295061        8.1196867387
 Ca        10.5362587181       12.0362622424       16.2922311094
  O        18.0484927846       12.0366815899        6.0015279206
  O        13.3076622157       12.0410519549       14.2463574864
  O        15.4592463582       12.0376582586        5.8534656825
  O        10.7450201840       12.0467060639       14.0064276949
  P        16.8157558032       12.0375931327        5.0085194501
  P        12.1101838860       12.0331323774       13.2901920680
 Ca        11.6635391957       12.0492745026       10.2251582272
 Ca        16.3389098037       12.0360930481       18.2510689549
  O        13.2697685929       12.0348233072        0.7321442957
  O        17.9730005586       12.0363504614        8.9369978289
  O        14.3281138805       12.0366725187        3.1462507898
  O         0.2359244193       12.0277337934       11.2605483256
  P        13.0570693379       12.0373039841        2.2124060541
  P        17.7440714978       12.0410189977       10.4879498545
 Ca        10.6308167868       12.0377390930        4.0990746549
 Ca        15.2823028117       12.0218588502       12.3943786254
 Ca        14.1104911731        6.7993866516        4.7727825618
 Ca         9.4464036728        6.8919067607       13.0237272524
 Ca         9.4048985081       10.3277115584        7.5198157440
 Ca        14.1563373945       10.2217698495       15.7067389287
 Ca         9.4009719175       13.7470516086        7.5182732630
 Ca        14.1561571303       13.8538803204       15.7116720445
 Ca        14.1116668732       10.3957008566        4.7719480775
 Ca         9.4499997807       10.3039445305       13.0215590604
  O        13.7748371111        7.7860088116        9.8816469227
  O         9.3521634511        7.7806904185       18.0583727615
  H        14.2189312562        7.2754910100       10.6861386942
  H         9.6171262036        7.5935565899       19.0166591971
  O        13.7431206635       11.4059153385       10.5024636926
  O         9.1608289033       11.1413039477       18.1512869171
  H        14.7128811129       10.5719905115       10.0667175943
  H         9.9268328353       10.9013426835       18.8017770088
  O        14.0530709051        5.7673624824       10.6840311562
  O         9.1672501429        6.0463620649       18.1745802171
  H        14.1806173191        6.3838711842        9.8123256443
  H         9.9149702353        6.3224677320       18.7885129221
  O        14.6118953282        9.5145347661       10.3463985231
  O         9.3605208798        9.3954688979       18.0487378598
  H        13.6032727003        9.9687102361       10.2000382259
  H         9.5971878689        9.5804310979       19.0521316932
  O         8.0594002628        6.6886756449       25.4831314361
  C         9.1577966078        7.2381458407       25.4566301564
  O        10.5898088961        7.9569998839       25.4052225935
     387
 i =       18, E =     -6920.8875100286
  O         0.8136829597        0.4754537850        4.8256530533
  O         5.4977718490        0.4653896171       13.0033852773
  O         6.7562663733        0.4658268297        8.1027715061
  O         2.1305507258        0.3811821916       16.2254309885
  O         1.8289079117        0.4610364952        9.4879738076
  O         6.5056636759        0.4228353823       17.6812405536
  O         3.9259259966        3.9120927443        7.4765406390
  O         8.5736082670        3.8930759605       15.4841670205
  O         7.3798381885        3.8437474839        4.1916932564
  O         2.6878159185        3.9200644842       12.3078312488
  O         2.7616087453        3.8978705640        2.7714359988
  O         7.5800672458        3.8937002758       10.9538196633
  O         3.9228955161        6.4014954404        7.4400525207
  O         8.5757075784        6.4222296954       15.4893683090
  O         7.3793133400        6.4741977082        4.1934284298
  O         2.6482567668        6.4409721704       12.3746867615
  O         2.7640702500        6.4208124597        2.7719350996
  O         7.5229475077        6.4071256278       10.9201304853
  O         0.8141075437        2.9656111648        4.8259263231
  O         5.5024666254        2.9947261921       13.0645650589
  O         6.7507153463        2.9777805164        8.0984463098
  O         2.1357576513        3.0656577642       16.2203788492
  O         1.9002219186        2.9702472454        9.5100170958
  O         6.5063344305        3.0129042969       17.6806238562
  O         3.0650046530        1.7224884003        4.7271446782
  O         7.7476337844        1.7174910352       12.8686783357
  O         1.6251180798        1.7230054155        6.8633885604
  O         6.2871722370        1.7054360576       14.9901821578
  P         1.6168715386        1.7198414108        5.3064079922
  P         6.2974648976        1.7325451302       13.4437698416
 Ca         8.2534047629        1.7185694861        4.1397705122
 Ca         3.4754979187        1.7174054500       12.3085858891
  O         5.5292392698        1.7233503823        6.2042264800
  O         0.8159538002        1.7251517810       14.4885578064
  O         8.0950886343        1.7234718816        6.4057038574
  O         3.3970348644        1.7195718457       14.5790585202
  P         6.7398331137        1.7180672621        7.1863583216
  P         2.0769704637        1.7211508812       15.4513738796
 Ca         2.5217535450        1.7189914120        2.2341943695
 Ca         7.1226480329        1.7246876086       10.2909738328
  O         0.8804532296        1.7287956808       11.5234102821
  O         5.5725091282        1.7206392410       19.7316539077
  O        18.5721901163        1.7464998741        9.2177187128
  O         4.4417462110        1.7183904837       17.3336933760
  P         1.0834625046        1.7137968826        9.9901686356
  P         5.7257321651        1.7182008977       18.2503638434
 Ca         3.5558741081        1.6878041862        8.1369874587
 Ca         8.1497671851        1.7111496673       16.2209912114
  O         1.6653206911        5.1553569501        7.5764736649
  O         6.3561043148        5.1596647258       15.7353538588
  O         3.0688488232        5.1398677159        5.4471124830
  O         7.7733609173        5.1644477011       13.5378570444
  P         3.1042279496        5.1569177847        7.0049238564
  P         7.7794184949        5.1591672988       15.1010230635
 Ca         6.0354824932        5.1607669009        8.1056849645
 Ca         1.1233635006        5.1594558513       16.2885300242
  O         8.6212254253        5.1573961108        5.9964422491
  O         3.8859337299        5.1575867378       14.2501562188
  O         6.0369705503        5.1557119879        5.8431485184
  O         1.3184619639        5.1381355055       14.0116148920
  P         7.3925010977        5.1580582013        5.0139807462
  P         2.6882143335        5.1631257097       13.2653349696
 Ca         2.1831181793        5.1609587792       10.2166161354
 Ca         6.9238054619        5.1530013633       18.2520331734
  O         3.8429015585        5.1556154696        0.7412691748
  O         8.5470838664        5.1586082335        8.9367260040
  O         4.9040772645        5.1575547267        3.1418722891
  O         9.6835163138        5.1754506649       11.2459697756
  P         3.6334195561        5.1583613996        2.2079393132
  P         8.3268653802        5.1526795026       10.4880827683
 Ca         1.2033651120        5.1582647087        4.0983162224
 Ca         5.8695354777        5.1521080475       12.4408333794
 Ca         4.6912426517       -0.0792416974        4.7757815684
 Ca         0.0125332731        0.0106349826       13.0207904976
 Ca        -0.0219921099        3.4457906271        7.5190497358
 Ca         4.7292256484        3.3441045680       15.7064998405
 Ca        -0.0251492010        6.8713445597        7.5182408944
 Ca         4.7274097817        6.9715928974       15.7156832462
 Ca         4.6949017856        3.5115709080        4.7684269253
 Ca         0.0153336699        3.4205459041       13.0192652304
  O         4.2976381112        0.7035107191        9.8996478870
  O        -0.1788225928        1.0036000379       18.1132657176
  H         4.8824478814        0.3204287951       10.6757989151
  H         0.2426090661        0.6953804519       19.0006027438
  O         5.2256486054        4.6457842362       10.3889596809
  O        -0.2426551732        4.3075700893       18.1391348766
  H         4.7130625287        4.0076933996        9.8014324581
  H         0.4766020643        4.0446093914       18.8145558713
  O         5.1957712983       12.5321423708       10.5176816847
  O        -0.2274069601       12.8226301529       18.1455686977
  H         4.4882835422       13.3851481911        9.7278638909
  H         0.4861819362       13.1917367433       18.8295822906
  O         5.1424261103        2.5684698346       10.5999116741
  O         0.0412781633        2.4258200715       18.0445019898
  H         4.2710643632        2.9237385593       10.2419741433
  H         0.1422135764        2.6938533489       19.0191092695
  O        10.2391262632        0.4750305023        4.8259217982
  O        14.9188600336        0.4709470698       13.0037748388
  O        16.2025360654        0.4524352069        8.0759262421
  O        11.5572424626        0.3799023498       16.2247211171
  O        11.3085016408        0.4714713081        9.5077700376
  O        15.9213819161        0.4209629775       17.6782292712
  O        13.3422059553        3.8880130715        7.4298748720
  O        18.0012673822        3.8971264262       15.4855137165
  O        16.8066092225        3.8434653577        4.1911550220
  O        12.1136503535        3.9256379348       12.3175416677
  O        12.1855883741        3.8975943166        2.7700427664
  O        16.9522451904        3.9075290090       10.9366383285
  O        13.3499434429        6.3961340216        7.4456849208
  O        18.0024974920        6.4222356263       15.4878147288
  O        16.8060971116        6.4753007772        4.1923929898
  O        12.0849873754        6.4294712037       12.3655395192
  O        12.1878100246        6.4214208296        2.7697152559
  O        16.9504422874        6.4137806170       10.9239667923
  O        10.2380814130        2.9642643387        4.8263314599
  O        14.9316625771        2.9898193083       13.0475032106
  O        16.1625489349        2.9611650108        8.1116102728
  O        11.5635581552        3.0638498536       16.2204410831
  O        11.3084674628        2.9714653536        9.5040144301
  O        15.9392797975        3.0116182287       17.6814582816
  O        12.4887481965        1.7195759464        4.7256586730
  O        17.1691121233        1.7239184033       12.8662762365
  O        11.0566901824        1.7166381524        6.8655618882
  O        15.7082571969        1.7092281204       14.9914835943
  P        11.0417257385        1.7199484354        5.3096507761
  P        15.7218969374        1.7214169602       13.4445804472
 Ca        17.6774364812        1.7201876557        4.1368320067
 Ca        12.8559297931        1.7321666759       12.3608131826
  O        14.9575075928        1.7208221901        6.2040805167
  O        10.2428418758        1.7197611578       14.4895536847
  O        17.5224324485        1.7403155069        6.4021044622
  O        12.8210867527        1.7200817597       14.5795145854
  P        16.1678268258        1.7145405773        7.1783370032
  P        11.4991842957        1.7205393581       15.4527733479
 Ca        11.9453938620        1.7202479368        2.2360240094
 Ca        16.4720777176        1.7085208855       10.3031763665
  O        10.3035600820        1.7209252669       11.5225406578
  O        14.9949468977        1.7274564407       19.7315453257
  O         9.1621937707        1.7213239866        9.2073568057
  O        13.8661386222        1.7279872015       17.3334049751
  P        10.5139773088        1.7251247807        9.9907870178
  P        15.1503288666        1.7152949341       18.2510574093
 Ca        12.9687796513        1.6901620425        8.1555968821
 Ca        17.5703914012        1.7305111347       16.2070182635
  O        11.0918285188        5.1549015581        7.5721756613
  O        15.7818778362        5.1580062933       15.7336728209
  O        12.4926581576        5.1602464989        5.4429289847
  O        17.2005085467        5.1641645677       13.5393320294
  P        12.5339824277        5.1481855222        7.0064367216
  P        17.2041084248        5.1602384921       15.1031903965
 Ca        15.4713420552        5.1518079732        8.0692087258
 Ca        10.5362447659        5.1609601840       16.2978124211
  O        18.0448795324        5.1584988937        5.9981933299
  O        13.3125956021        5.1567652644       14.2517780144
  O        15.4620745614        5.1561158078        5.8314695148
  O        10.7428262545        5.1424272468       14.0166861623
  P        16.8155136543        5.1586429313        5.0093747453
  P        12.1089300426        5.1659001837       13.2707555179
 Ca        11.7094291489        5.1744165272       10.2263620408
 Ca        16.3441916721        5.1583095289       18.2515869254
  O        13.2669940612        5.1563760003        0.7409321793
  O        17.9758355721        5.1582314530        8.9396643526
  O        14.3282497744        5.1581115690        3.1415831318
  O         0.2353434215        5.1623589179       11.2560440886
  P        13.0580980439        5.1583953359        2.2078841208
  P        17.7365116311        5.1551035129       10.4839299837
 Ca        10.6305718885        5.1596216055        4.1031978056
 Ca        15.3250846622        5.1416876445       12.4527700689
 Ca        14.1129825282       -0.0757470099        4.7735238976
 Ca         9.4391572438        0.0129768630       13.0152845373
 Ca         9.4064802828        3.4514519198        7.5232117545
 Ca        14.1460092476        3.3444626958       15.7076063225
 Ca         9.4068020521        6.8722491239        7.5292194842
 Ca        14.1442909965        6.9747412513       15.7120775115
 Ca        14.1107516757        3.5153568656        4.7773182033
 Ca         9.4320091187        3.4276878084       13.0160357318
  O        14.3242411061        0.8517419145        9.7311979422
  O         9.3474595724        0.9201924097       18.0830709612
  H        13.7394043332        0.4264314834       10.5920747761
  H         9.5930689209        0.7547813431       19.0399233859
  O        14.1335484396        4.6011123981        9.7611250318
  O         9.2172715621        4.2747485652       18.1517272721
  H        14.2899296277        3.7267482173       10.8019069490
  H         9.8634596927        4.0174453212       18.8056537563
  O        14.2461627253       12.6947466421       10.6181479042
  O         9.1904513893       12.9372196123       18.1291991954
  H        14.4571005859       13.5006820193        9.6019047156
  H         9.9102109185       13.1515035433       18.7923216025
  O        14.1561426341        2.6429446334       10.7026762747
  O         9.3947799951        2.5240098925       18.0738074819
  H        13.9669342187        3.0419494037        9.7221477318
  H         9.6180719412        2.7266302767       18.9877301381
  O         0.8148929845        7.3523461912        4.8259313321
  O         5.4922605044        7.3500504080       12.9951391911
  O         6.7752727006        7.3333440659        8.0810611035
  O         2.1316731945        7.2565960118       16.2237909021
  O         1.8769266964        7.3459553706        9.5054431973
  O         6.5035975672        7.3016036720       17.6811600836
  O         3.9154496042       10.7633637761        7.4191340684
  O         8.5776044135       10.7741733372       15.4898626822
  O         7.3809566994       10.7225658842        4.1915630997
  O         2.6730009814       10.7835491840       12.3429647170
  O         2.7612427817       10.7760894002        2.7705708992
  O         7.5266241104       10.7891823127       10.9208929994
  O         3.9231218916       13.2777537256        7.4392671979
  O         8.5774596476       13.3024150046       15.4902472779
  O         7.3810213849       13.3542016992        4.1922978540
  O         2.6788468439       13.2873613461       12.3276369268
  O         2.7634271888       13.3007554659        2.7700107745
  O         7.5678784421       13.3116054325       10.9551155476
  O         0.8130479131        9.8436951257        4.8259237572
  O         5.5077183624        9.8646795907       13.0679655469
  O         6.7420854471        9.8462732452        8.1085999424
  O         2.1374137897        9.9413112150       16.2205321303
  O         1.8946980614        9.8427291052        9.5051636029
  O         6.5070274218        9.8947047395       17.6794629159
  O         3.0643682484        8.5975907277        4.7284515771
  O         7.7459943188        8.5984135881       12.8651121001
  O         1.6205433501        8.5939295684        6.8632385555
  O         6.2871461058        8.5778272806       14.9926075013
  P         1.6156097394        8.5993647092        5.3038321128
  P         6.3026074562        8.6003920530       13.4476464755
 Ca         8.2537145366        8.6003963203        4.1406337608
 Ca         3.4448201194        8.6378649541       12.3607136474
  O         5.5301449130        8.5971579404        6.2055566112
  O         0.8176162695        8.5966658320       14.4878973127
  O         8.0964555881        8.6163072297        6.4029067007
  O         3.3984994811        8.5963618485       14.5813309374
  P         6.7433893116        8.5981425463        7.1822257588
  P         2.0756222417        8.5997975631       15.4534071940
 Ca         2.5217904237        8.5998780057        2.2334748345
 Ca         7.0796634055        8.5883437704       10.2913448582
  O         0.8787309771        8.6001503679       11.5220430023
  O         5.5720991127        8.6048849730       19.7318123033
  O        18.5796084010        8.6084711975        9.2148468778
  O         4.4418463270        8.6005506472       17.3328424324
  P         1.0875700689        8.5991482914        9.9919930974
  P         5.7271613485        8.5991755044       18.2504076858
 Ca         3.5417730969        8.5630204025        8.1068971656
 Ca         8.1539316620        8.6076308930       16.2271048221
  O         1.6639837533       12.0345259897        7.5723746898
  O         6.3577794656       12.0366650686       15.7321085346
  O         3.0667864466       12.0420926836        5.4433468003
  O         7.7902467163       12.0402415800       13.5450879400
  P         3.1090764675       12.0274678409        7.0065698183
  P         7.7838537343       12.0385851984       15.1069078464
 Ca         5.9784700252       12.0328127662        8.1616684495
 Ca         1.1241050807       12.0403354208       16.2969898630
  O         8.6237359511       12.0375682803        5.9953782009
  O         3.8876755294       12.0384735013       14.2519902036
  O         6.0390866059       12.0375808819        5.8452679273
  O         1.3196780085       12.0399575405       14.0118123502
  P         7.3894085732       12.0382565226        5.0169561463
  P         2.6883315015       12.0393583552       13.2669323565
 Ca         2.1868909162       12.0731849945       10.2291806684
 Ca         6.9295156335       12.0393309540       18.2504589304
  O         3.8425957099       12.0350906064        0.7411571382
  O         8.5501066415       12.0386457994        8.9386650684
  O         4.9042033916       12.0368929136        3.1403648993
  O         9.6713300739       12.0207398100       11.2518072167
  P         3.6339483049       12.0373421022        2.2082882599
  P         8.3161299731       12.0451062293       10.4877609800
 Ca         1.2080185143       12.0387810853        4.1027019529
 Ca         5.8840355288       12.0080976876       12.5136617519
 Ca         4.6933945330        6.8035069021        4.7719523092
 Ca         0.0216886256        6.8941381684       13.0228638399
 Ca        -0.0218956934       10.3325822701        7.5192293950
 Ca         4.7235245831       10.2249017724       15.7127975512
 Ca        -0.0209181795       13.7494197644        7.5264483127
 Ca         4.7227536393       13.8534204435       15.7137993529
 Ca         4.6904809040       10.3974025651        4.7785920251
 Ca         0.0122979652       10.3103007566       13.0237899878
  O         4.8975295750        7.7022892690        9.7560075887
  O        -0.0617363603        7.8828069302       18.0719205022
  H         4.3639759075        7.2942745636       10.6282918527
  H         0.1731594278        7.6286030027       19.0509472346
  O         4.2813683551       11.5489898182        9.8663598142
  O        -0.2394675075       11.2390992136       18.1348334841
  H         5.1585871625       10.5973842094       10.5535442002
  H         0.4592017342       10.9019644062       18.8333356159
  O         4.2630311343        5.7384476103       10.5215632614
  O        -0.2530331858        5.9916912355       18.1510878845
  H         5.0421365365        6.6709083010        9.7419652677
  H         0.5002555540        6.2771138773       18.8012608823
  O         4.9591769566        9.5529153596       10.6673522043
  O        -0.0574165616        9.3294494712       18.0585602649
  H         4.2703155332        9.8987152917        9.8737893307
  H         0.2138665511        9.6196861406       18.9964846331
  O        10.2383189115        7.3545772695        4.8251011716
  O        14.9226211618        7.3428046406       12.9969214007
  O        16.1826053166        7.3451684203        8.1044504264
  O        11.5615392274        7.2561467646       16.2215518574
  O        11.2518177521        7.3302866028        9.4926516047
  O        15.9315157703        7.3002372072       17.6809759849
  O        13.3516353561       10.7882019018        7.4562068070
  O        17.9982094539       10.7712573812       15.4830005123
  O        16.8041298238       10.7227823293        4.1922980060
  O        12.0761056867       10.7666589543       12.3700162961
  O        12.1858182418       10.7765881735        2.7704601738
  O        16.9556737302       10.7868149486       10.9193476446
  O        13.3468111480       13.2796468402        7.4506776028
  O        17.9984338671       13.3044447994       15.4847569971
  O        16.8041572366       13.3532402607        4.1933670748
  O        12.1009165258       13.2886474903       12.3255431319
  O        12.1882817718       13.3000425342        2.7703050033
  O        16.9710584761       13.3012073645       10.9338204624
  O        10.2384825899        9.8434313820        4.8250280794
  O        14.9227533195        9.8613583088       13.0414429893
  O        16.1817311398        9.8592533729        8.0946903345
  O        11.5589581621        9.9400566136       16.2236570904
  O        11.3196183247        9.8452113785        9.5105481872
  O        15.9301028830        9.8896325281       17.6786860522
  O        12.4888135833        8.6003227897        4.7247262308
  O        17.1699023291        8.5938857252       12.8651064269
  O        11.0542120513        8.5999268570        6.8641512976
  O        15.7098097631        8.5820337578       14.9884036404
  P        11.0413987311        8.5991263327        5.3093714138
  P        15.7233900123        8.6088412658       13.4440812063
 Ca        17.6768984641        8.5987853659        4.1372957675
 Ca        12.8949216258        8.6081120695       12.3019343268
  O        14.9585200919        8.5991208399        6.2034720905
  O        10.2394127612        8.6004860151       14.4930961525
  O        17.5203419379        8.5986180031        6.4063942983
  O        12.8213380659        8.5990222540       14.5728665541
  P        16.1643457438        8.6010158789        7.1832243982
  P        11.5004913184        8.5995250820       15.4494748066
 Ca        11.9452939710        8.5985638353        2.2367386586
 Ca        16.5395460000        8.5837231600       10.2856571180
  O        10.3012053280        8.6034372725       11.5224296380
  O        14.9950560384        8.5986547570       19.7312336544
  O         9.1498686809        8.6221498790        9.2115826127
  O        13.8659784990        8.5949087428       17.3329371448
  P        10.5071196184        8.5900144637        9.9896753068
  P        15.1498746397        8.5994784932       18.2510915512
 Ca        12.9811028149        8.5822537666        8.1479926866
 Ca        17.5697148632        8.5930498430       16.2139036864
  O        11.0907154299       12.0373786964        7.5724436657
  O        15.7806149577       12.0369908271       15.7351206223
  O        12.4933615822       12.0312845408        5.4446712379
  O        17.1940296603       12.0393961999       13.5346333336
  P        12.5304448596       12.0310908884        7.0057296562
  P        17.2023179231       12.0387587289       15.0987553420
 Ca        15.4299622698       12.0414600796        8.1188232573
 Ca        10.5370045892       12.0360590166       16.2942883394
  O        18.0462392754       12.0364544792        5.9962527490
  O        13.3086394887       12.0418212466       14.2515932355
  O        15.4639489776       12.0374877399        5.8489852199
  O        10.7432869437       12.0498051709       14.0151471475
  P        16.8157331653       12.0377595306        5.0141570401
  P        12.1098334472       12.0340052913       13.2674882429
 Ca        11.6558281111       12.0526632739       10.2237477311
 Ca        16.3355791043       12.0364128517       18.2540478002
  O        13.2671733058       12.0342960903        0.7411470114
  O        17.9732690494       12.0360330122        8.9399421505
  O        14.3282545365       12.0364421478        3.1424569889
  O         0.2327069551       12.0255697735       11.2668753033
  P        13.0578997605       12.0373251786        2.2079074919
  P        17.7403954975       12.0447360865       10.4868018230
 Ca        10.6275039410       12.0377454321        4.1019700711
 Ca        15.2812719269       12.0187818892       12.3972239934
 Ca        14.1113290802        6.8023673689        4.7762506052
 Ca         9.4458952189        6.8920773381       13.0185224855
 Ca         9.4041841296       10.3281520307        7.5230821284
 Ca        14.1510751767       10.2274875673       15.7051656143
 Ca         9.4000692289       13.7465403638        7.5209219427
 Ca        14.1509860128       13.8480371235       15.7107187956
 Ca        14.1130856164       10.3923857143        4.7751185820
 Ca         9.4500225101       10.3042360717       13.0161718344
  O        13.7723148493        7.7630277220        9.8903315861
  O         9.3631069212        7.7840865166       18.0751902234
  H        14.2146334289        7.3033817827       10.6963532180
  H         9.6078685908        7.6052983838       19.0052741600
  O        13.7246064857       11.3874656382       10.4950397758
  O         9.1742597822       11.1431222330       18.1664070955
  H        14.7405523126       10.5593275839       10.0840377985
  H         9.9203869243       10.9169549952       18.7969075423
  O        14.0534797902        5.7556309001       10.6727561542
  O         9.1794513531        6.0461242790       18.1900368520
  H        14.1642864659        6.3884469413        9.8197583626
  H         9.9105972817        6.3019820614       18.7859159523
  O        14.6103802389        9.5401048271       10.3323134684
  O         9.3746278700        9.3992921206       18.0734269195
  H        13.6032158747        9.9541546607       10.2075052007
  H         9.5850922368        9.5703229157       19.0345782716
  O         8.0815174648        6.6990816637       25.4816725332
  C         9.1886423217        7.2536342042       25.4573634717
  O        10.5382382895        7.9311460012       25.4060811330
     387
 i =       19, E =     -6921.1055350748
  O         0.8129482010        0.4759252181        4.8238688300
  O         5.5032108577        0.4805501043       13.0020879346
  O         6.7600512506        0.4759860335        8.0935513171
  O         2.1261687772        0.3803745040       16.2282297373
  O         1.7945027999        0.4641865104        9.4869996863
  O         6.5029554669        0.4276279975       17.6797092891
  O         3.9222164669        3.9159239390        7.4777669879
  O         8.5702508736        3.8891567474       15.4889331628
  O         7.3846415486        3.8419967444        4.1824485275
  O         2.6857389933        3.9325294582       12.3188446238
  O         2.7566123603        3.9053178774        2.7733210151
  O         7.5985184448        3.8879165448       10.9626089828
  O         3.9146649805        6.3912830900        7.4302458554
  O         8.5723247496        6.4254871025       15.4925891008
  O         7.3839699099        6.4752917651        4.1851829742
  O         2.6395495302        6.4368130070       12.4034005380
  O         2.7590843505        6.4130319876        2.7741007890
  O         7.5256916369        6.4005750319       10.9115087718
  O         0.8136185753        2.9658922914        4.8241593472
  O         5.5085001123        2.9900508355       13.0878917202
  O         6.7542388993        2.9711177268        8.0894638455
  O         2.1331823534        3.0654497469       16.2214985151
  O         1.8991921142        2.9634032825        9.5158817825
  O         6.5047960386        3.0074419322       17.6789621946
  O         3.0658694236        1.7234469114        4.7244522117
  O         7.7415361779        1.7175803159       12.8792185194
  O         1.6226314848        1.7243316086        6.8510690819
  O         6.2821827028        1.6952385003       15.0033288585
  P         1.6154944969        1.7201088292        5.3192009496
  P         6.2870745257        1.7316529804       13.4323519042
 Ca         8.2498881918        1.7178197895        4.1430178518
 Ca         3.4869056170        1.7201622637       12.2869871939
  O         5.5298473724        1.7247118329        6.2007653561
  O         0.8185392097        1.7264084922       14.5014248331
  O         8.0955620051        1.7248168721        6.4004569770
  O         3.3945189116        1.7186417784       14.5836191452
  P         6.7411648003        1.7150901972        7.1988963197
  P         2.0788344235        1.7247993314       15.4345785187
 Ca         2.5266421370        1.7185907108        2.2347192808
 Ca         7.1222882283        1.7258968070       10.2854416263
  O         0.8775034921        1.7318423737       11.5263418744
  O         5.5756065913        1.7209870218       19.7269571733
  O        18.5714768147        1.7582117296        9.2179286543
  O         4.4330146040        1.7181746992       17.3425454316
  P         1.0836409487        1.7120406407        9.9774170286
  P         5.7139922999        1.7167432222       18.2484324831
 Ca         3.5542292419        1.6868720382        8.1224328515
 Ca         8.1662163372        1.7145254016       16.2483033587
  O         1.6669463340        5.1541476607        7.5755800056
  O         6.3545509645        5.1600121318       15.7355903629
  O         3.0672869370        5.1318917100        5.4442813987
  O         7.7806450959        5.1671133081       13.5503867679
  P         3.1141519085        5.1610911798        7.0172205314
  P         7.7726669795        5.1607597484       15.0624708372
 Ca         6.0491579429        5.1629566881        8.1001918580
 Ca         1.1272589563        5.1591008859       16.2855164763
  O         8.6171617822        5.1569436960        5.9866057877
  O         3.8837239859        5.1569765260       14.2579603487
  O         6.0454137280        5.1543474955        5.8317593947
  O         1.3200284860        5.1292690792       14.0243183631
  P         7.3912287707        5.1582451495        5.0154851114
  P         2.6868388670        5.1680909140       13.2344292615
 Ca         2.1602254132        5.1592909203       10.2115900414
 Ca         6.9327410807        5.1535948685       18.2523933074
  O         3.8379019463        5.1545191684        0.7472996068
  O         8.5485208937        5.1570293155        8.9403840067
  O         4.9021614280        5.1571340009        3.1396606761
  O         9.6841722766        5.1838450277       11.2510915632
  P         3.6349653580        5.1582650458        2.2045761864
  P         8.3212663376        5.1610679496       10.4878201345
 Ca         1.1997990905        5.1577812336        4.1023872202
 Ca         5.8602009143        5.1503893987       12.4424184750
 Ca         4.6939510987       -0.0813309284        4.7837231989
 Ca         0.0116629331        0.0113987561       13.0120652578
 Ca        -0.0203286457        3.4445518465        7.5230015459
 Ca         4.7203434081        3.3448595819       15.7012378809
 Ca        -0.0248244141        6.8717473422        7.5211942223
 Ca         4.7171896483        6.9691037508       15.7143955551
 Ca         4.6992769372        3.5104219266        4.7721807541
 Ca         0.0165047353        3.4185278760       13.0104351693
  O         4.2819539477        0.6280606961        9.8958754058
  O        -0.1618057128        1.0032682854       18.1701463762
  H         4.8719674395        0.3738101529       10.7092676188
  H         0.2321765735        0.7178799046       18.9657364326
  O         5.2745048161        4.6748724478       10.3486795365
  O        -0.2237770125        4.2855678934       18.1691521359
  H         4.7339366990        4.0371586879        9.7784402055
  H         0.4652518471        4.0744999938       18.8144133080
  O         5.2613902173       12.4666376195       10.4952197081
  O        -0.1888864892       12.8554543577       18.1839111234
  H         4.4482425558       13.4302956017        9.6965814969
  H         0.4648306257       13.1395032930       18.8196836332
  O         5.1453687652        2.5507960858       10.6225237982
  O         0.0845059683        2.4183181282       18.0826155585
  H         4.2397689579        2.8768527314       10.2722663602
  H         0.1243836828        2.6730536207       18.9948103352
  O        10.2395210133        0.4752765198        4.8245547420
  O        14.9238166193        0.4838211347       13.0028962075
  O        16.2137024068        0.4561970901        8.0591776031
  O        11.5558620562        0.3789354199       16.2267110935
  O        11.3039902306        0.4773086969        9.5142162146
  O        15.9177193918        0.4246070655       17.6754573386
  O        13.3355045792        3.8880311005        7.4158219696
  O        17.9963391660        3.8935357446       15.4870927480
  O        16.8120718473        3.8416691162        4.1817103658
  O        12.1128191182        3.9412835177       12.3311882516
  O        12.1806545944        3.9052433761        2.7718924549
  O        16.9510043267        3.9075807084       10.9346480152
  O        13.3451027400        6.3871950209        7.4364145265
  O        17.9982333350        6.4262536280       15.4889164476
  O        16.8112715849        6.4771576943        4.1833338540
  O        12.0813518526        6.4249100928       12.3927634923
  O        12.1828047490        6.4138647647        2.7713683388
  O        16.9485873509        6.4141305826       10.9159220223
  O        10.2381785836        2.9638223674        4.8254781712
  O        14.9370698100        2.9826408630       13.0588903339
  O        16.1632567016        2.9500572753        8.1045359841
  O        11.5616829241        3.0655354040       16.2225168589
  O        11.3045849288        2.9678509729        9.5101510800
  O        15.9371703064        3.0032411575       17.6796056297
  O        12.4896161003        1.7190047118        4.7229354826
  O        17.1628942091        1.7257639749       12.8756812313
  O        11.0549851188        1.7146194231        6.8525113835
  O        15.7029830592        1.7035158732       15.0098006930
  P        11.0412661779        1.7197629010        5.3218664600
  P        15.7109853583        1.7195783356       13.4255108252
 Ca        17.6744323437        1.7201504774        4.1376642019
 Ca        12.8429575026        1.7380264734       12.3654168442
  O        14.9575522867        1.7197838740        6.1983600722
  O        10.2467516074        1.7201851430       14.5013415999
  O        17.5254445290        1.7483592219        6.3945770560
  O        12.8182709639        1.7201832490       14.5902564487
  P        16.1688497582        1.7129761032        7.1929876588
  P        11.5013596985        1.7202448753       15.4383043054
 Ca        11.9506921413        1.7204403344        2.2369590605
 Ca        16.4618735476        1.7087016270       10.3017979763
  O        10.3009123907        1.7217220108       11.5266982010
  O        14.9968823676        1.7298804314       19.7268008828
  O         9.1690660845        1.7218669979        9.2009819696
  O        13.8568011825        1.7310284334       17.3417610686
  P        10.5244570543        1.7262265661        9.9786361604
  P        15.1403036810        1.7169498574       18.2487779948
 Ca        12.9524811107        1.6861999397        8.1388943657
 Ca        17.5834980138        1.7268341071       16.2243252103
  O        11.0948451830        5.1524654468        7.5704560706
  O        15.7776456672        5.1579526558       15.7327541900
  O        12.4911355137        5.1599789555        5.4383381812
  O        17.2089339817        5.1669140601       13.5500014852
  P        12.5428861767        5.1448621614        7.0124934213
  P        17.2012453863        5.1604489008       15.0687923046
 Ca        15.4868797077        5.1527639442        8.0544907183
 Ca        10.5327858322        5.1610173031       16.2990933165
  O        18.0391078065        5.1585547311        5.9890835676
  O        13.3111242927        5.1563440294       14.2590481596
  O        15.4701129881        5.1549939250        5.8161834682
  O        10.7424297833        5.1357148006       14.0315124615
  P        16.8161283596        5.1583014366        5.0090310683
  P        12.1116822119        5.1661662976       13.2436715937
 Ca        11.7180110275        5.1780533536       10.2231191908
 Ca        16.3456149782        5.1585777384       18.2543327250
  O        13.2620661569        5.1555705372        0.7469756687
  O        17.9784044827        5.1577313689        8.9434371885
  O        14.3263732846        5.1579347712        3.1393024032
  O         0.2257313942        5.1645309032       11.2663868864
  P        13.0597257762        5.1580823124        2.2043750420
  P        17.7243656928        5.1541605088       10.4824696943
 Ca        10.6279035563        5.1596621191        4.1092246461
 Ca        15.3261816713        5.1393231158       12.4596244285
 Ca        14.1150250953       -0.0761301101        4.7781440669
 Ca         9.4366109590        0.0120565635       13.0030825091
 Ca         9.4075019030        3.4525541320        7.5288022269
 Ca        14.1359553750        3.3461571109       15.7049925093
 Ca         9.4078769352        6.8729466112        7.5382364084
 Ca        14.1324937551        6.9722518271       15.7113508725
 Ca        14.1111324002        3.5154655891        4.7832133160
 Ca         9.4272996408        3.4280857411       13.0036341378
  O        14.3204778030        0.8183807321        9.6800243154
  O         9.3768418458        0.9090012972       18.1244281830
  H        13.7389996552        0.4562581581       10.5759674867
  H         9.5718789452        0.7771729771       19.0173873597
  O        14.1337499440        4.5823121635        9.7028412415
  O         9.2333386869        4.2537953486       18.1784972321
  H        14.2929450228        3.6871737370       10.8657628668
  H         9.8568850196        4.0687328863       18.8044346284
  O        14.2632894350       12.7244787735       10.6437539034
  O         9.2126408072       12.9486656688       18.1536549813
  H        14.4756720850       13.5565061030        9.5548638514
  H         9.9035848036       13.1215968849       18.7886608920
  O        14.1630338936        2.6907864711       10.7251913632
  O         9.4243044241        2.5277573754       18.0985597726
  H        13.9526001440        3.0240119486        9.7304763770
  H         9.6026069059        2.6921335371       18.9731959542
  O         0.8143136518        7.3511602965        4.8239277935
  O         5.4981007399        7.3645171312       12.9919734777
  O         6.7848335504        7.3401829462        8.0638114052
  O         2.1287866320        7.2565904904       16.2255718974
  O         1.8702558447        7.3523560646        9.5120512138
  O         6.5012224266        7.3058030575       17.6800635627
  O         3.9052724501       10.7643138634        7.3996329524
  O         8.5745832635       10.7691748891       15.4942630245
  O         7.3861364762       10.7215439620        4.1828434625
  O         2.6690808556       10.7985149347       12.3645777622
  O         2.7561790629       10.7836831718        2.7723334616
  O         7.5312427106       10.7925158884       10.9144264901
  O         3.9167943588       13.2702673368        7.4264122401
  O         8.5749489886       13.3084002169       15.4946284278
  O         7.3861297207       13.3557418204        4.1834020445
  O         2.6761685367       13.2760588727       12.3423106800
  O         2.7583718091       13.2932748870        2.7713035368
  O         7.5779875413       13.3178930276       10.9627478362
  O         0.8118615763        9.8439915976        4.8242191500
  O         5.5136379786        9.8554255701       13.0875162393
  O         6.7441140232        9.8349475987        8.0985316293
  O         2.1336169051        9.9433094025       16.2233829982
  O         1.8900388981        9.8349327596        9.5120704089
  O         6.5044518976        9.8890734062       17.6771591064
  O         3.0651070140        8.5964200093        4.7265895488
  O         7.7422398294        8.5981195643       12.8747728526
  O         1.6159952864        8.5912893183        6.8486572524
  O         6.2832766713        8.5669234849       15.0132405623
  P         1.6146494071        8.5989551288        5.3186150514
  P         6.2887813170        8.5971683498       13.4290841397
 Ca         8.2503402467        8.6013416801        4.1436473995
 Ca         3.4458238855        8.6502997399       12.3572520260
  O         5.5302540623        8.5946360007        6.2009499725
  O         0.8206751494        8.5963901484       14.5001454868
  O         8.1011432784        8.6225421266        6.3934847513
  O         3.3951288539        8.5956980879       14.5915301198
  P         6.7428804663        8.5991118652        7.1991734302
  P         2.0793318832        8.5968075011       15.4359637074
 Ca         2.5267314165        8.6003842739        2.2333743371
 Ca         7.0736192327        8.5878329857       10.2863688812
  O         0.8729879133        8.6007185002       11.5264811681
  O         5.5751747647        8.6065130015       19.7271068830
  O        18.5823620116        8.6112430689        9.2113859380
  O         4.4337585605        8.6007261585       17.3415821869
  P         1.1032394097        8.6006710731        9.9785548343
  P         5.7151611637        8.6001642682       18.2476421468
 Ca         3.5373572280        8.5587822794        8.0935536068
 Ca         8.1713090094        8.6044452807       16.2558283285
  O         1.6658726197       12.0324701364        7.5700102617
  O         6.3554446005       12.0362812630       15.7313061599
  O         3.0636455192       12.0433427116        5.4378673046
  O         7.8004408286       12.0411286408       13.5589611924
  P         3.1181642468       12.0218149820        7.0127024796
  P         7.7789866842       12.0379665737       15.0678607075
 Ca         5.9692472746       12.0297705555        8.1798940895
 Ca         1.1298110523       12.0409218630       16.2943604526
  O         8.6210776515       12.0375783707        5.9843573079
  O         3.8854355621       12.0393004088       14.2600386512
  O         6.0483151945       12.0375302931        5.8362664160
  O         1.3198982391       12.0420298268       14.0266996405
  P         7.3869968656       12.0377827459        5.0201083133
  P         2.6897628194       12.0379080925       13.2352612608
 Ca         2.1797176418       12.0817335111       10.2267914913
 Ca         6.9359824485       12.0389476971       18.2520170229
  O         3.8374969230       12.0341832746        0.7470080905
  O         8.5530276267       12.0410396847        8.9431418257
  O         4.9022836599       12.0366127150        3.1374824618
  O         9.6675790585       12.0149357014       11.2596544845
  P         3.6356791391       12.0369911322        2.2048679945
  P         8.3035379047       12.0394898848       10.4883514351
 Ca         1.2062884672       12.0390530881        4.1087035944
 Ca         5.8722224379       12.0072025043       12.5178199996
 Ca         4.6970284283        6.8030311146        4.7771824100
 Ca         0.0260534523        6.8940863151       13.0158257313
 Ca        -0.0200796061       10.3344474256        7.5223073827
 Ca         4.7138353964       10.2260901122       15.7110534332
 Ca        -0.0187122424       13.7503246668        7.5334747859
 Ca         4.7121079400       13.8519074156       15.7127616771
 Ca         4.6928909019       10.3995549033        4.7870861352
 Ca         0.0118967274       10.3112741237       13.0166548925
  O         4.9148457616        7.6500647492        9.7387856207
  O        -0.0310863466        7.8820572574       18.1120226938
  H         4.3676763112        7.3353251383       10.6202899756
  H         0.1568246232        7.6495552034       19.0298193031
  O         4.2730635546       11.5732435280        9.7978388017
  O        -0.2029602848       11.2094379799       18.1782654121
  H         5.1521295146       10.5658017274       10.6137542496
  H         0.4312424927       10.9572449063       18.8188232574
  O         4.2371197270        5.7023594043       10.5337362011
  O        -0.2325246933        6.0148962238       18.1786234289
  H         5.0290783928        6.7186172460        9.6964576271
  H         0.4893692302        6.2485179018       18.7987331185
  O         4.9633930302        9.6160441591       10.6621425104
  O        -0.0289302999        9.3268775738       18.1043167198
  H         4.2662342949        9.8784577519        9.8969829717
  H         0.2030563044        9.5953587103       18.9631005402
  O        10.2383917566        7.3552390370        4.8237088630
  O        14.9261065879        7.3556059649       12.9893105024
  O        16.1865791803        7.3555991694        8.0972487976
  O        11.5600646348        7.2552391955       16.2230833045
  O        11.2239626611        7.3297102992        9.4940462592
  O        15.9281772450        7.3061570630       17.6793030926
  O        13.3473952084       10.7909111902        7.4502394048
  O        17.9935304894       10.7686410522       15.4845419774
  O        16.8083833401       10.7215438113        4.1839887156
  O        12.0683290274       10.7714322483       12.4011082941
  O        12.1808427611       10.7840654571        2.7724501111
  O        16.9535757947       10.7852267241       10.9105592535
  O        13.3408158194       13.2700804568        7.4433529223
  O        17.9937624790       13.3072969577       15.4862174243
  O        16.8084983553       13.3543440864        4.1854040440
  O        12.0957480318       13.2762515679       12.3411022212
  O        12.1834683607       13.2923020913        2.7721163305
  O        16.9737018567       13.3018984040       10.9288255582
  O        10.2388342593        9.8429464546        4.8235599954
  O        14.9260646873        9.8505434485       13.0482645636
  O        16.1865429587        9.8535244412        8.0856900028
  O        11.5582233731        9.9409755402       16.2248743838
  O        11.3198495935        9.8382861268        9.5172961028
  O        15.9285433842        9.8828851448       17.6758447821
  O        12.4897865213        8.6006107610        4.7217451812
  O        17.1626419986        8.5925965128       12.8737878450
  O        11.0526714515        8.6002701593        6.8519148901
  O        15.7034597106        8.5728046035       15.0023504273
  P        11.0401983239        8.5990629151        5.3207036481
  P        15.7155877708        8.6078436450       13.4268581370
 Ca        17.6733361356        8.5990126094        4.1382298837
 Ca        12.8922003825        8.6130456063       12.2916328069
  O        14.9596816527        8.5986527117        6.1995378018
  O        10.2420114239        8.6003411015       14.5068419922
  O        17.5205825751        8.5976027869        6.4019543940
  O        12.8192934450        8.5985625564       14.5774507240
  P        16.1675101380        8.5996356026        7.1950277101
  P        11.5021358592        8.5995264805       15.4330998809
 Ca        11.9505692981        8.5984907464        2.2379418469
 Ca        16.5580806766        8.5748647732       10.2787276831
  O        10.2995524106        8.6044454772       11.5249914834
  O        14.9969254227        8.5982843316       19.7267468551
  O         9.1528064548        8.6314872285        9.2089319488
  O        13.8565423444        8.5935300343       17.3409904678
  P        10.5043705350        8.5887119101        9.9777378749
  P        15.1400576216        8.5967420990       18.2487634375
 Ca        12.9701919663        8.5868887029        8.1216448298
 Ca        17.5817996290        8.5956698052       16.2317846529
  O        11.0936704056       12.0370033963        7.5706070342
  O        15.7776060806       12.0364762888       15.7353529862
  O        12.4925006363       12.0288078314        5.4419300464
  O        17.1988758871       12.0400746113       13.5453242906
  P        12.5382258533       12.0313200878        7.0137325734
  P        17.1968380922       12.0390118645       15.0596156866
 Ca        15.4300178677       12.0368205885        8.1177909605
 Ca        10.5356383985       12.0355303860       16.2938177311
  O        18.0418869490       12.0359940937        5.9863651354
  O        13.3062153638       12.0439863562       14.2586607971
  O        15.4722017881       12.0372999701        5.8418608194
  O        10.7434403909       12.0572505760       14.0294937437
  P        16.8161673134       12.0378910169        5.0161867221
  P        12.1084156521       12.0355936312       13.2421131921
 Ca        11.6421222986       12.0589621888       10.2194266529
 Ca        16.3340241835       12.0372069852       18.2562708769
  O        13.2623145403       12.0330612818        0.7472841131
  O        17.9751465770       12.0357713470        8.9443844373
  O        14.3264845695       12.0359715373        3.1406491743
  O         0.2244997268       12.0208335002       11.2809332200
  P        13.0592889433       12.0371798958        2.2044262802
  P        17.7336170969       12.0491515516       10.4860729117
 Ca        10.6232008967       12.0376379498        4.1076052563
 Ca        15.2764175221       12.0106195853       12.3995022678
 Ca        14.1120624707        6.8016387687        4.7818486700
 Ca         9.4461171086        6.8927851839       13.0073017882
 Ca         9.4029211889       10.3295798640        7.5295217382
 Ca        14.1410286056       10.2303944416       15.7015762368
 Ca         9.3973788144       13.7449069620        7.5258643634
 Ca        14.1411762780       13.8444455983       15.7091756462
 Ca        14.1152405211       10.3923830057        4.7801021642
 Ca         9.4517632049       10.3045177604       13.0043761463
  O        13.7602427371        7.7214548537        9.8982189825
  O         9.3838296549        7.7905491717       18.1029015964
  H        14.2089963590        7.3718614165       10.7262681409
  H         9.5905142605        7.6370754468       18.9901928903
  O        13.6794947581       11.3720671414       10.4832802918
  O         9.1951372080       11.1311578208       18.1939558818
  H        14.8060860359       10.5399982785       10.1255488293
  H         9.9154136843       10.9483999415       18.7947823920
  O        14.0557705722        5.7143230432       10.6525698023
  O         9.1980534398        6.0592198548       18.2172687329
  H        14.1244027485        6.4019582851        9.8344516925
  H         9.9087513873        6.2567716437       18.7865482165
  O        14.6174157102        9.5753691446       10.2987943520
  O         9.4007788564        9.4069854070       18.1107786726
  H        13.6058802100        9.9186007717       10.2242976798
  H         9.5634369724        9.5446005688       19.0138230682
  O         8.1643574501        6.7393519546       25.4766275014
  C         9.2535292691        7.2865957582       25.4587561094
  O        10.4301273481        7.8603114401       25.4084274018
     387
 i =       20, E =     -6921.2000663434
  O         0.8109918623        0.4793958323        4.8239893365
  O         5.5015115361        0.4907932769       12.9968358870
  O         6.7643887013        0.4797857022        8.0904554815
  O         2.1276970042        0.3762330565       16.2238107861
  O         1.7663253253        0.4592821891        9.4811326831
  O         6.4923984165        0.4309737060       17.6811713241
  O         3.9224425204        3.9190412716        7.4827801228
  O         8.5654179340        3.8926327936       15.4884743732
  O         7.3861365034        3.8369672914        4.1802670182
  O         2.6816988379        3.9398496144       12.3225577259
  O         2.7538496866        3.9146887443        2.7746988268
  O         7.6197035294        3.8846882411       10.9738599399
  O         3.9142965538        6.3886886711        7.4261549813
  O         8.5681814665        6.4228662582       15.4909815565
  O         7.3852967239        6.4801203611        4.1836291976
  O         2.6289010093        6.4461237776       12.4184309908
  O         2.7561112849        6.4035276222        2.7757744983
  O         7.5250328057        6.4000579354       10.9062055362
  O         0.8118408042        2.9632368098        4.8240461273
  O         5.5079865153        2.9911720037       13.1136895135
  O         6.7589184708        2.9689641845        8.0852679352
  O         2.1363939472        3.0700285487       16.2170157284
  O         1.8994406252        2.9565176805        9.5182977513
  O         6.4951809289        3.0026627820       17.6803114666
  O         3.0670371612        1.7245157520        4.7270155289
  O         7.7320908817        1.7182345004       12.8887199891
  O         1.6232548475        1.7258276800        6.8490243642
  O         6.2842184862        1.6832578355       15.0154992089
  P         1.6148770058        1.7206587740        5.3144927164
  P         6.2880487094        1.7302526577       13.4323115606
 Ca         8.2508421176        1.7168946572        4.1456841570
 Ca         3.4972227626        1.7239403494       12.2732851278
  O         5.5330036655        1.7261105412        6.1987476594
  O         0.8227096431        1.7278460915       14.5145674908
  O         8.0965322371        1.7264182948        6.3988725371
  O         3.3940474261        1.7173323966       14.5846491511
  P         6.7430207958        1.7151933108        7.1938618453
  P         2.0794649992        1.7267309702       15.4346645873
 Ca         2.5404467712        1.7181644765        2.2415816691
 Ca         7.1257316261        1.7261940188       10.2770147204
  O         0.8752296825        1.7347156461       11.5257125878
  O         5.5758914525        1.7213263299       19.7308055868
  O        18.5671898648        1.7700758757        9.2204979152
  O         4.4315242972        1.7178950560       17.3427795930
  P         1.0750101908        1.7179174619        9.9732423053
  P         5.7092135329        1.7162097877       18.2471737528
 Ca         3.5509239205        1.6883760197        8.1011074513
 Ca         8.1751793603        1.7178824252       16.2825083318
  O         1.6699981111        5.1535215287        7.5758778438
  O         6.3504188665        5.1605271684       15.7337292324
  O         3.0630472223        5.1244046526        5.4488531785
  O         7.7800040556        5.1707249042       13.5421313433
  P         3.1149245312        5.1567925532        7.0221935879
  P         7.7699286615        5.1614215762       15.0590055870
 Ca         6.0659619677        5.1645265473        8.0834646985
 Ca         1.1167087202        5.1585256510       16.2783245339
  O         8.6116919256        5.1565615242        5.9779813539
  O         3.8766787504        5.1568388844       14.2656990487
  O         6.0522506694        5.1528341121        5.8234075317
  O         1.3229821035        5.1210810198       14.0297900136
  P         7.3927959831        5.1578564111        5.0044364139
  P         2.6844129058        5.1656133675       13.2319801697
 Ca         2.1340503085        5.1566136834       10.2046642657
 Ca         6.9562541764        5.1544594309       18.2410324809
  O         3.8357945350        5.1531927560        0.7423596548
  O         8.5505841069        5.1552532857        8.9437373249
  O         4.8878616777        5.1567880887        3.1467721329
  O         9.6855473507        5.1937538762       11.2534462916
  P         3.6306317080        5.1578370149        2.2069909962
  P         8.3229997688        5.1618636715       10.4873393302
 Ca         1.2040344630        5.1570752262        4.0996872590
 Ca         5.8522447531        5.1474261283       12.4426643222
 Ca         4.6943847134       -0.0975462930        4.7825826771
 Ca         0.0113552249        0.0136150453       13.0062739265
 Ca        -0.0204306720        3.4438682598        7.5207536381
 Ca         4.7168381529        3.3251820046       15.6964581079
 Ca        -0.0266300524        6.8714827123        7.5179330231
 Ca         4.7121204526        6.9862137588       15.7148801744
 Ca         4.7013782668        3.5230663187        4.7663292312
 Ca         0.0183890330        3.4157709546       13.0043549306
  O         4.2858130966        0.5913692378        9.9270506543
  O        -0.1825720582        0.9926907069       18.1677527182
  H         4.8505700309        0.4184991034       10.7191245436
  H         0.2506359666        0.7469306676       18.9928033718
  O         5.3044163972        4.6990206380       10.2899176140
  O        -0.2259790894        4.2619905452       18.1800650363
  H         4.7624631374        4.0627899903        9.7705713188
  H         0.4757237207        4.1024828584       18.8351363823
  O         5.3288752596       12.3932719825       10.4821672055
  O        -0.1898746528       12.8748418263       18.1802782874
  H         4.4070307668       13.4551920328        9.6575555926
  H         0.4865547603       13.0998487272       18.8501742696
  O         5.1123457731        2.5149351560       10.6350494601
  O         0.1202158655        2.4251790427       18.0826855041
  H         4.2345210811        2.8385716037       10.3041188559
  H         0.1166897706        2.6423216689       19.0096394192
  O        10.2386226191        0.4783449093        4.8247084609
  O        14.9225227275        0.4909461493       12.9987487004
  O        16.2290077273        0.4520595509        8.0454443108
  O        11.5602608667        0.3734157425       16.2222078407
  O        11.3021615178        0.4799659144        9.5161918801
  O        15.9059150635        0.4266776551       17.6757829915
  O        13.3330860651        3.8844972504        7.4011635085
  O        17.9909763476        3.8952547089       15.4846634734
  O        16.8145426001        3.8363815966        4.1788024102
  O        12.1105339341        3.9492553683       12.3361276090
  O        12.1778944843        3.9147569085        2.7733558082
  O        16.9487911322        3.9060442301       10.9343489152
  O        13.3449185609        6.3811496984        7.4308878890
  O        17.9936384985        6.4248594435       15.4858493674
  O        16.8133671243        6.4827122731        4.1808534939
  O        12.0771485848        6.4302457109       12.4060416514
  O        12.1798270523        6.4045539030        2.7725924256
  O        16.9469278876        6.4147152686       10.9093592190
  O        10.2370484386        2.9605178030        4.8262707224
  O        14.9364654297        2.9815087759       13.0690734261
  O        16.1667888834        2.9429689231        8.1031636837
  O        11.5654168921        3.0710796331       16.2182818071
  O        11.3038845180        2.9684680942        9.5121814292
  O        15.9280706905        2.9964597249       17.6806895879
  O        12.4911265781        1.7182972866        4.7249610739
  O        17.1549843409        1.7279322654       12.8834440923
  O        11.0547598928        1.7121107156        6.8488915504
  O        15.7046161737        1.6968360614       15.0226620323
  P        11.0413765492        1.7194717288        5.3167718859
  P        15.7094856618        1.7184296679       13.4211847087
 Ca        17.6757130575        1.7200814664        4.1379427305
 Ca        12.8286297567        1.7427394024       12.3743992786
  O        14.9609806272        1.7179429590        6.1938170096
  O        10.2532161022        1.7208749878       14.5130337222
  O        17.5276667984        1.7560550319        6.3921536685
  O        12.8197082725        1.7203224671       14.5975741241
  P        16.1703528185        1.7139117951        7.1877118143
  P        11.5000916708        1.7205718506       15.4427995069
 Ca        11.9649066503        1.7206282472        2.2442743846
 Ca        16.4549601967        1.7099531308       10.2967939165
  O        10.2991797749        1.7230348167       11.5267182159
  O        14.9964377766        1.7326387064       19.7303645901
  O         9.1760010698        1.7226793171        9.1967514262
  O        13.8557307115        1.7344361571       17.3423984104
  P        10.5264770939        1.7272860229        9.9742061708
  P        15.1350259532        1.7185398334       18.2466183271
 Ca        12.9322343950        1.6847379179        8.1131273148
 Ca        17.5885675995        1.7226922153       16.2476315356
  O        11.0985838241        5.1494779947        7.5693754841
  O        15.7721484944        5.1579244344       15.7301441198
  O        12.4862594784        5.1595906052        5.4380739729
  O        17.2113717256        5.1702241052       13.5437709159
  P        12.5450910002        5.1411457992        7.0135344428
  P        17.1997429722        5.1607297079       15.0648136791
 Ca        15.5022021190        5.1551667497        8.0340711210
 Ca        10.5147116910        5.1606852770       16.2956837034
  O        18.0321575238        5.1587530285        5.9811883398
  O        13.3064558068        5.1555430201       14.2675162475
  O        15.4767725699        5.1536745615        5.8046505002
  O        10.7446057198        5.1287630108       14.0385232732
  P        16.8184742478        5.1576805874        4.9961720017
  P        12.1104028259        5.1663710722       13.2457395967
 Ca        11.7244981875        5.1819892650       10.2179214368
 Ca        16.3603407462        5.1588453022       18.2458960641
  O        13.2599981233        5.1546035667        0.7419307276
  O        17.9825647438        5.1568029342        8.9469218469
  O        14.3120048900        5.1578692746        3.1460825682
  O         0.2172603855        5.1670774523       11.2762325086
  P        13.0556464449        5.1575839214        2.2067835172
  P        17.7158400394        5.1541474531       10.4810058280
 Ca        10.6330583832        5.1595506512        4.1088113410
 Ca        15.3280357670        5.1407197098       12.4660775232
 Ca        14.1147322090       -0.0907757436        4.7735879083
 Ca         9.4344836841        0.0117142796       12.9930959472
 Ca         9.4073346957        3.4539775902        7.5288009925
 Ca        14.1307084984        3.3275537507       15.7031977050
 Ca         9.4082965912        6.8730132306        7.5417168536
 Ca        14.1247332771        6.9896930765       15.7114342542
 Ca        14.1088393618        3.5294102952        4.7800688588
 Ca         9.4229954221        3.4275748278       12.9934010959
  O        14.3055629293        0.8197185143        9.6522907154
  O         9.3912098626        0.8797582428       18.1217988186
  H        13.7559499943        0.4683332074       10.5324153957
  H         9.5624688222        0.8159833928       19.0349685987
  O        14.1296174454        4.5692742655        9.6428550452
  O         9.2064833545        4.2395519866       18.1584842135
  H        14.2948163966        3.6568281053       10.9171296929
  H         9.8980080031        4.1120177718       18.8485301216
  O        14.2730139626       12.7402747526       10.6600613005
  O         9.2238472760       12.9719321949       18.1674374791
  H        14.4880629652       13.6097597522        9.5181568215
  H         9.9099304436       13.0873898874       18.7967621715
  O        14.1633102880        2.7120791065       10.7340886449
  O         9.4342180300        2.5460328825       18.0667001957
  H        13.9463882702        3.0105010563        9.7659050526
  H         9.6014639571        2.6425135239       19.0149842893
  O         0.8125692158        7.3533512633        4.8239490313
  O         5.4958152830        7.3723018913       12.9827869804
  O         6.7967110801        7.3391504228        8.0505997582
  O         2.1318734283        7.2520039581       16.2207427552
  O         1.8686008025        7.3539579546        9.5140076966
  O         6.4905663071        7.3093438394       17.6822412361
  O         3.9001490374       10.7597635101        7.3803818648
  O         8.5701980858       10.7706063740       15.4937831468
  O         7.3878067912       10.7169604983        4.1809837857
  O         2.6651416725       10.7997556152       12.3723458467
  O         2.7532544986       10.7929718429        2.7738056649
  O         7.5332842887       10.7885162977       10.9115674139
  O         3.9149118453       13.2661693929        7.4165240368
  O         8.5707384150       13.3070855850       15.4939443503
  O         7.3877187648       13.3604726220        4.1816331398
  O         2.6725270554       13.2735254864       12.3490638021
  O         2.7554339192       13.2836302045        2.7722226621
  O         7.5896323660       13.3221651229       10.9726105572
  O         0.8097021382        9.8406519843        4.8247397978
  O         5.5109259651        9.8539306963       13.1058361914
  O         6.7472623024        9.8294768891        8.0965229125
  O         2.1355332212        9.9478923647       16.2190482565
  O         1.8904548618        9.8324000700        9.5144610841
  O         6.4940498558        9.8846431367       17.6775914658
  O         3.0662685184        8.5949862687        4.7303336397
  O         7.7342046291        8.5976853832       12.8828488877
  O         1.6144294972        8.5881268704        6.8460249949
  O         6.2857604088        8.5560349831       15.0283364977
  P         1.6138267398        8.5984227691        5.3136133480
  P         6.2901066412        8.5941841728       13.4265929692
 Ca         8.2513259965        8.6024823252        4.1459834261
 Ca         3.4453671892        8.6615484445       12.3612100371
  O         5.5331153203        8.5911394109        6.1983818108
  O         0.8263353158        8.5961760967       14.5125607469
  O         8.1038119296        8.6289033006        6.3903674130
  O         3.3960232794        8.5950527121       14.5964798282
  P         6.7448663449        8.6015953034        7.1925792381
  P         2.0788393696        8.5956741421       15.4383882664
 Ca         2.5406139465        8.6009134340        2.2395462262
 Ca         7.0751159240        8.5886477639       10.2788177508
  O         0.8688169107        8.6016457233       11.5264363595
  O         5.5756226103        8.6086474276       19.7303774781
  O        18.5882991090        8.6141539448        9.2101365852
  O         4.4326933754        8.6009949221       17.3415267696
  P         1.1062412744        8.6024383408        9.9740389072
  P         5.7101725807        8.6004933114       18.2463568821
 Ca         3.5305639792        8.5570755695        8.0733657638
 Ca         8.1807125676        8.6010965837       16.2905319666
  O         1.6691233795       12.0296792889        7.5684865788
  O         6.3507260329       12.0356363122       15.7287098772
  O         3.0573869048       12.0445845307        5.4367688120
  O         7.8026115451       12.0417667842       13.5511922143
  P         3.1183104305       12.0181498015        7.0124743840
  P         7.7780767716       12.0380794596       15.0641404107
 Ca         5.9609966137       12.0273265348        8.1909254776
 Ca         1.1202987426       12.0414203985       16.2869543273
  O         8.6174298382       12.0375060566        5.9742242783
  O         3.8784777344       12.0401117778       14.2680691638
  O         6.0557229170       12.0373503472        5.8307182790
  O         1.3222754592       12.0444401021       14.0338370234
  P         7.3876870919       12.0375910640        5.0111524979
  P         2.6882099075       12.0420204635       13.2359463479
 Ca         2.1742242209       12.0891953955       10.2224511589
 Ca         6.9558809646       12.0385002769       18.2420479794
  O         3.8352626115       12.0329611254        0.7418687563
  O         8.5564924826       12.0440815414        8.9479167602
  O         4.8879703825       12.0362007366        3.1440140727
  O         9.6635089454       12.0085607623       11.2659323770
  P         3.6315562684       12.0368547299        2.2070090969
  P         8.2976233424       12.0397342199       10.4887615867
 Ca         1.2121622536       12.0395123863        4.1078751863
 Ca         5.8624351315       12.0115630184       12.5188279061
 Ca         4.6982594965        6.7880353856        4.7723939335
 Ca         0.0310160313        6.8944422224       13.0118836987
 Ca        -0.0204256617       10.3369518277        7.5191449839
 Ca         4.7101413327       10.2069641029       15.7105571400
 Ca        -0.0183912632       13.7511868493        7.5345047838
 Ca         4.7066648904       13.8706013557       15.7128894422
 Ca         4.6930412956       10.4159627052        4.7863004474
 Ca         0.0116429801       10.3111120241       13.0126141397
  O         4.9161307097        7.6472554944        9.7504306694
  O        -0.0075038995        7.8628383748       18.1204254171
  H         4.3824929446        7.3682056440       10.5938434249
  H         0.1531617848        7.6829769353       19.0407963125
  O         4.2567115343       11.5995839772        9.7361750172
  O        -0.2171622483       11.1962859538       18.1753214261
  H         5.1583077628       10.5694138442       10.6666529819
  H         0.4545661146       10.9969840538       18.8543879311
  O         4.2110817673        5.6721836674       10.5577644458
  O        -0.2292959180        6.0433198642       18.1897491358
  H         5.0285753278        6.7197960656        9.6418826859
  H         0.4959841752        6.2212309015       18.8135843663
  O         4.9390145074        9.6396775966       10.6488656491
  O        -0.0179137866        9.3365005557       18.0828558188
  H         4.2802783861        9.8617778675        9.9344873865
  H         0.2133968735        9.5632985573       18.9946537495
  O        10.2370839667        7.3585822586        4.8237777921
  O        14.9244449476        7.3643761009       12.9768812687
  O        16.1922402335        7.3608967306        8.0951191053
  O        11.5642317073        7.2502001001       16.2182901450
  O        11.1997432208        7.3248883350        9.4914210905
  O        15.9176312672        7.3104436311       17.6805070665
  O        13.3471234835       10.7915806357        7.4473019214
  O        17.9886478251       10.7722648073       15.4817616393
  O        16.8093994395       10.7167313904        4.1824929503
  O        12.0582273018       10.7665628680       12.4212500794
  O        12.1779850206       10.7931548561        2.7739876137
  O        16.9508966028       10.7843777526       10.9031698573
  O        13.3406127600       13.2639431945        7.4402286433
  O        17.9889177163       13.3038480093       15.4833559944
  O        16.8096301359       13.3588952794        4.1841338468
  O        12.0887851788       13.2721967956       12.3503902965
  O        12.1806631689       13.2825787580        2.7734757846
  O        16.9747451635       13.3044264112       10.9248795529
  O        10.2379602396        9.8396684553        4.8234030792
  O        14.9237961782        9.8453196194       13.0516982333
  O        16.1936894501        9.8521851985        8.0797032383
  O        11.5632878925        9.9461110907       16.2195335879
  O        11.3199664279        9.8306862442        9.5207176277
  O        15.9195276393        9.8775683074       17.6760267044
  O        12.4914276275        8.6009219115        4.7235765266
  O        17.1550612024        8.5915315998       12.8807224212
  O        11.0529649325        8.6006549412        6.8485037289
  O        15.7042385611        8.5632152416       15.0116903393
  P        11.0396442753        8.5991859880        5.3154980719
  P        15.7141019230        8.6040188856       13.4214629897
 Ca        17.6740618235        8.5992839257        4.1386491461
 Ca        12.8868007624        8.6181056463       12.2877896110
  O        14.9638684348        8.5978945113        6.1965614720
  O        10.2459715513        8.6000591489       14.5199786410
  O        17.5223931974        8.5961820140        6.4003449027
  O        12.8198450243        8.5979187781       14.5800437240
  P        16.1699196520        8.6003330093        7.1910685195
  P        11.5027272639        8.5994231205       15.4342452922
 Ca        11.9647956976        8.5984318803        2.2455737135
 Ca        16.5786352302        8.5648836426       10.2689819149
  O        10.2977193706        8.6052162903       11.5244358137
  O        14.9963079750        8.5978868701       19.7304538446
  O         9.1505163068        8.6409983300        9.2076912474
  O        13.8554356882        8.5920016338       17.3412614573
  P        10.4993645321        8.5922331908        9.9731406600
  P        15.1351695410        8.5944518272       18.2466933713
 Ca        12.9590197949        8.5922467929        8.0914086439
 Ca        17.5857670516        8.5984944553       16.2555631935
  O        11.0970453309       12.0366194530        7.5694945435
  O        15.7729854249       12.0356952131       15.7338246066
  O        12.4884209943       12.0259215678        5.4443979181
  O        17.1972488099       12.0409358049       13.5365469498
  P        12.5392396114       12.0285450291        7.0165487309
  P        17.1935249478       12.0392689423       15.0539430107
 Ca        15.4296939735       12.0301859972        8.1085698873
 Ca        10.5202425367       12.0351825077       16.2882751575
  O        18.0371658311       12.0354227670        5.9779324358
  O        13.3005234744       12.0469916442       14.2673911714
  O        15.4798877223       12.0370096339        5.8363717132
  O        10.7442103362       12.0658036571       14.0377425124
  P        16.8174792258       12.0380287616        5.0066811684
  P        12.1039969407       12.0382109027       13.2435629610
 Ca        11.6239540013       12.0659961943       10.2132277137
 Ca        16.3477398307       12.0380746358       18.2465113735
  O        13.2603507346       12.0314198730        0.7423178881
  O        17.9791217598       12.0359049325        8.9484388587
  O        14.3122134087       12.0353135858        3.1479388135
  O         0.2189419051       12.0156787172       11.2942975623
  P        13.0549465857       12.0371000562        2.2070260773
  P        17.7303754734       12.0499611703       10.4853202197
 Ca        10.6265452745       12.0376756901        4.1069354012
 Ca        15.2744779033       12.0025607090       12.4065335112
 Ca        14.1101376324        6.7864378334        4.7783173198
 Ca         9.4479794638        6.8943156211       12.9992004352
 Ca         9.4002484704       10.3325450193        7.5302299859
 Ca        14.1350486704       10.2127069400       15.6985073759
 Ca         9.3928263379       13.7425367474        7.5252069995
 Ca        14.1355914187       13.8612238621       15.7086593903
 Ca        14.1151103570       10.4067732517        4.7760347819
 Ca         9.4548586058       10.3045647261       12.9954494545
  O        13.7568031918        7.6961671726        9.9273916849
  O         9.3929667276        7.7774170215       18.0898330050
  H        14.1999142734        7.4221113105       10.7430062522
  H         9.5840196133        7.6866407482       19.0135538097
  O        13.6329851354       11.3716022396       10.4791240353
  O         9.2050248150       11.1095713004       18.2075790800
  H        14.8688853426       10.5338990489       10.1626412285
  H         9.9234531047       10.9841318124       18.8045185757
  O        14.0607045197        5.6764500990       10.6369035697
  O         9.1896989239        6.0741160796       18.2201851141
  H        14.0813372770        6.4166344023        9.8509183181
  H         9.9343198556        6.2124389937       18.8087256335
  O        14.6071636202        9.5835266727       10.2713534479
  O         9.4179497500        9.4327528411       18.1108474545
  H        13.6297533901        9.8849887111       10.2369582597
  H         9.5517198999        9.5016440997       19.0287607449
  O         8.2517726685        6.7782485848       25.4714426761
  C         9.3518270848        7.3337368145       25.4579748763
  O        10.2729885608        7.7709052276       25.4101744924
     387
 i =       21, E =     -6921.3116255195
  O         0.8118893565        0.4804686778        4.8251766994
  O         5.4982117447        0.4868800581       12.9942118042
  O         6.7634435288        0.4758088928        8.0938209931
  O         2.1292444925        0.3790185787       16.2216931123
  O         1.7698552863        0.4553714794        9.4794081481
  O         6.4906431796        0.4313394236       17.6830490286
  O         3.9239891596        3.9179918074        7.4842994575
  O         8.5631691746        3.8962140584       15.4857282660
  O         7.3848503187        3.8391898781        4.1822642067
  O         2.6817745757        3.9359012279       12.3180624805
  O         2.7550556373        3.9143931143        2.7732905594
  O         7.6201010611        3.8862589296       10.9741226247
  O         3.9180119842        6.3933372027        7.4287465047
  O         8.5663817645        6.4200128540       15.4887578955
  O         7.3839810596        6.4781356084        4.1853924421
  O         2.6285403409        6.4532691735       12.4118354018
  O         2.7572574509        6.4039197469        2.7743451908
  O         7.5228612906        6.4033586545       10.9075999567
  O         0.8126862902        2.9622234892        4.8251415995
  O         5.5051681636        2.9948580270       13.1135634235
  O         6.7582823395        2.9717898759        8.0876553960
  O         2.1380134667        3.0680179901       16.2154118358
  O         1.9008073054        2.9568795694        9.5170967285
  O         6.4933080449        3.0018198188       17.6821414306
  O         3.0654139824        1.7245604245        4.7289379085
  O         7.7314710611        1.7184471262       12.8873363225
  O         1.6239547568        1.7259319698        6.8542764587
  O         6.2862163995        1.6829234825       15.0128206686
  P         1.6149140528        1.7207678040        5.3057364105
  P         6.2937426466        1.7306838077       13.4400185117
 Ca         8.2517182021        1.7168185828        4.1449297977
 Ca         3.4963651778        1.7247086297       12.2764062331
  O         5.5344838837        1.7261031219        6.2005803353
  O         0.8213105822        1.7278959560       14.5121461329
  O         8.0955612012        1.7265146368        6.4011069505
  O         3.3952412381        1.7170761896       14.5818016755
  P         6.7434941233        1.7169259312        7.1849873925
  P         2.0789534997        1.7258342545       15.4417164200
 Ca         2.5420741216        1.7181458562        2.2428668227
 Ca         7.1263732551        1.7264342544       10.2768563487
  O         0.8762288410        1.7346101489       11.5230744724
  O         5.5746038205        1.7212596365       19.7329445334
  O        18.5654384613        1.7699020797        9.2206858329
  O         4.4314875472        1.7177943615       17.3441416568
  P         1.0704621883        1.7211890757        9.9787168960
  P         5.7122516145        1.7167571541       18.2443033850
 Ca         3.5515179352        1.6888805777        8.1005030672
 Ca         8.1713402291        1.7174299988       16.2798700443
  O         1.6705059905        5.1538187199        7.5769042064
  O         6.3512835636        5.1606257227       15.7318397182
  O         3.0635371808        5.1249698895        5.4529812641
  O         7.7772723806        5.1712237346       13.5318511359
  P         3.1095757209        5.1525137576        7.0160995002
  P         7.7728866302        5.1609154079       15.0758683874
 Ca         6.0675449596        5.1636809870        8.0800503563
 Ca         1.1125299191        5.1583693196       16.2788669340
  O         8.6126182235        5.1565725957        5.9799620572
  O         3.8745082274        5.1571265666       14.2628876454
  O         6.0501874543        5.1527273756        5.8248367527
  O         1.3245325266        5.1218257588       14.0247084635
  P         7.3945053236        5.1575747572        4.9994373037
  P         2.6834406787        5.1628448001       13.2483867595
 Ca         2.1337777064        5.1559114803       10.2039650021
 Ca         6.9586122386        5.1544929723       18.2378905497
  O         3.8372948353        5.1530744816        0.7396578369
  O         8.5500356723        5.1551523878        8.9435170622
  O         4.8855885796        5.1568220130        3.1453009352
  O         9.6851959181        5.1942074965       11.2523058205
  P         3.6275803803        5.1576998698        2.2119896626
  P         8.3271154960        5.1574704306       10.4879587458
 Ca         1.2049661849        5.1569788880        4.0982443849
 Ca         5.8516254335        5.1461860490       12.4417830764
 Ca         4.6938735723       -0.0976301472        4.7808628833
 Ca         0.0115437065        0.0139908866       13.0077425926
 Ca        -0.0210737106        3.4440303023        7.5186029681
 Ca         4.7183151320        3.3242440645       15.6958881123
 Ca        -0.0274640508        6.8713559302        7.5158422444
 Ca         4.7134582846        6.9866873219       15.7150506658
 Ca         4.7008321894        3.5230822716        4.7644476675
 Ca         0.0186220147        3.4157741562       13.0058570122
  O         4.2855191833        0.6070692262        9.9327639584
  O        -0.1901664168        0.9779605036       18.1590609441
  H         4.8512757914        0.4144170181       10.7152625982
  H         0.2556454271        0.7498996554       19.0060701761
  O         5.3006815252        4.6965538581       10.2841224556
  O        -0.2279700703        4.2572382609       18.1780537162
  H         4.7661560203        4.0637348527        9.7745662821
  H         0.4800106206        4.1080892047       18.8375642785
  O         5.3315295066       12.3946625838       10.4886370410
  O        -0.1968281311       12.8782233523       18.1735052100
  H         4.4056800688       13.4387630907        9.6493962970
  H         0.4957794361       13.0982655014       18.8571984857
  O         5.1020456648        2.5147163773       10.6335885439
  O         0.1226393076        2.4409499868       18.0727971941
  H         4.2421804470        2.8369350460       10.3045559806
  H         0.1164326560        2.6387772072       19.0200306227
  O        10.2394179741        0.4792760493        4.8255758543
  O        14.9195993991        0.4872537532       12.9963544532
  O        16.2302277783        0.4479302590        8.0471805540
  O        11.5614530903        0.3756562967       16.2204603184
  O        11.3045119753        0.4783910428        9.5144539876
  O        15.9035007993        0.4270622677       17.6776869323
  O        13.3349826548        3.8814110011        7.4000431938
  O        17.9893221735        3.8979294119       15.4826386419
  O        16.8134385001        3.8384931545        4.1805376040
  O        12.1109454445        3.9441058736       12.3312655968
  O        12.1790444604        3.9143226937        2.7719659363
  O        16.9480929464        3.9053442742       10.9347708226
  O        13.3468454488        6.3832088371        7.4322509455
  O        17.9920471086        6.4221327912       15.4839595283
  O        16.8122392817        6.4805792747        4.1826404351
  O        12.0776383409        6.4356009710       12.3995275502
  O        12.1809753870        6.4048875889        2.7711701329
  O        16.9468250844        6.4145557945       10.9099565042
  O        10.2379023779        2.9595496827        4.8272436197
  O        14.9339125808        2.9855483771       13.0681641612
  O        16.1667845374        2.9452770914        8.1064680562
  O        11.5666903859        3.0687271548       16.2164976922
  O        11.3063775475        2.9706255595        9.5106338714
  O        15.9268242811        2.9961193437       17.6824521647
  O        12.4897229692        1.7182099160        4.7265530183
  O        17.1549375197        1.7281053446       12.8816063051
  O        11.0546877372        1.7118561280        6.8538100242
  O        15.7063496161        1.6965055178       15.0160999447
  P        11.0411702486        1.7194077630        5.3082210790
  P        15.7146157106        1.7188678136       13.4326532311
 Ca        17.6765075280        1.7200615554        4.1372731172
 Ca        12.8279178952        1.7418168079       12.3756716007
  O        14.9631900276        1.7175658270        6.1958295346
  O        10.2523495140        1.7210002433       14.5106103137
  O        17.5257509417        1.7555904599        6.3952784015
  O        12.8218241559        1.7203351457       14.5942794392
  P        16.1710890416        1.7147658341        7.1768617450
  P        11.4987741969        1.7207357135       15.4504614347
 Ca        11.9665054109        1.7206200863        2.2455969195
 Ca        16.4559146522        1.7103535385       10.2959115823
  O        10.3004070362        1.7232996423       11.5235124001
  O        14.9954772785        1.7327398469       19.7324241454
  O         9.1763750823        1.7228240979        9.1969965524
  O        13.8559916742        1.7344811557       17.3439810892
  P        10.5209269131        1.7273275460        9.9793562931
  P        15.1372407745        1.7184928958       18.2435477462
 Ca        12.9318796434        1.6858334468        8.1102507255
 Ca        17.5850992898        1.7231941804       16.2458980561
  O        11.0988621730        5.1491329402        7.5699187429
  O        15.7740432596        5.1579389529       15.7282561602
  O        12.4863543577        5.1595668257        5.4403109305
  O        17.2095110973        5.1704690740       13.5347109370
  P        12.5408225774        5.1414535274        7.0093020774
  P        17.2012126382        5.1607963634       15.0803268996
 Ca        15.5017262362        5.1557085267        8.0339077886
 Ca        10.5118623817        5.1606567299       16.2945041649
  O        18.0333296897        5.1588051010        5.9831890957
  O        13.3051649611        5.1552999793       14.2654995425
  O        15.4749423987        5.1535362715        5.8065205129
  O        10.7470997902        5.1288870888       14.0333002212
  P        16.8193074799        5.1577062655        4.9911787391
  P        12.1074092957        5.1671444548       13.2621347384
 Ca        11.7247553340        5.1823755992       10.2172406966
 Ca        16.3642036915        5.1587226218       18.2428424128
  O        13.2614760326        5.1544907335        0.7391619444
  O        17.9825477101        5.1565339685        8.9469220124
  O        14.3096851450        5.1578721469        3.1444680366
  O         0.2165967327        5.1671970263       11.2761147153
  P        13.0526932747        5.1576387243        2.2118632131
  P        17.7185819776        5.1546737130       10.4817052368
 Ca        10.6339866538        5.1595459150        4.1075254512
 Ca        15.3270043864        5.1425355086       12.4657882936
 Ca        14.1142082970       -0.0910617758        4.7720286518
 Ca         9.4347407119        0.0117630757       12.9942500723
 Ca         9.4071031717        3.4540241663        7.5269853569
 Ca        14.1320239314        3.3266784244       15.7029846148
 Ca         9.4084549527        6.8729285919        7.5399621479
 Ca        14.1256190148        6.9904272060       15.7111636009
 Ca        14.1081619099        3.5295262603        4.7785830216
 Ca         9.4231547112        3.4274638397       12.9945031724
  O        14.3011839592        0.8354572182        9.6605960049
  O         9.3880382929        0.8733482172       18.1070098635
  H        13.7608869488        0.4652705105       10.5236622920
  H         9.5650580035        0.8222498678       19.0501358325
  O        14.1275842624        4.5800540755        9.6369553061
  O         9.2020342402        4.2431726936       18.1535238894
  H        14.2962094826        3.6620817298       10.9171686298
  H         9.9050007642        4.1152717784       18.8541306800
  O        14.2688838593       12.7289204488       10.6585629738
  O         9.2185524769       12.9712318731       18.1634718179
  H        14.4885270886       13.6041983275        9.5162248650
  H         9.9169368707       13.0806580898       18.8018336205
  O        14.1596585820        2.7005349474       10.7278947395
  O         9.4325313114        2.5530498933       18.0602426931
  H        13.9491983957        3.0059572621        9.7744471424
  H         9.6028573812        2.6377564521       19.0244758294
  O         0.8135053513        7.3546309844        4.8251778696
  O         5.4920687676        7.3681761059       12.9789699080
  O         6.7969577486        7.3347954853        8.0529491161
  O         2.1334456871        7.2541879231       16.2188473552
  O         1.8720393208        7.3511731183        9.5121102434
  O         6.4884777180        7.3102319862       17.6841696967
  O         3.9025439362       10.7558763413        7.3804980864
  O         8.5679993926       10.7739588712       15.4913919503
  O         7.3863705556       10.7190472463        4.1828859913
  O         2.6661861082       10.7919653710       12.3655847788
  O         2.7544178942       10.7925288645        2.7724739417
  O         7.5317780764       10.7847488893       10.9130136767
  O         3.9169748299       13.2687730397        7.4177063151
  O         8.5683156344       13.3031689772       15.4915336076
  O         7.3863071543       13.3582147982        4.1836808121
  O         2.6732608128       13.2794166107       12.3445508785
  O         2.7565935453       13.2838641671        2.7708746175
  O         7.5904332908       13.3210270715       10.9729382834
  O         0.8107678291        9.8392335206        4.8260894097
  O         5.5071788410        9.8587461736       13.1044402844
  O         6.7464165987        9.8330402615        8.1010158935
  O         2.1371294116        9.9447769031       16.2166885596
  O         1.8941190582        9.8355812056        9.5125619023
  O         6.4923336007        9.8841904125       17.6793073842
  O         3.0647197200        8.5948463366        4.7323635202
  O         7.7327507835        8.5976492702       12.8810624981
  O         1.6150533250        8.5878861819        6.8522352005
  O         6.2872237564        8.5565085067       15.0217164629
  P         1.6134200870        8.5983444914        5.3036723564
  P         6.2980680767        8.5944468596       13.4386781310
 Ca         8.2521940859        8.6025644987        4.1451582147
 Ca         3.4442582824        8.6609645162       12.3639874765
  O         5.5347865691        8.5907323826        6.2006743347
  O         0.8255213069        8.5962219192       14.5101505788
  O         8.1008406326        8.6288112073        6.3943956269
  O         3.3983287057        8.5950871149       14.5924182254
  P         6.7470702774        8.6019697243        7.1799081446
  P         2.0768478904        8.5966834971       15.4469355442
 Ca         2.5422604015        8.6009276025        2.2408335625
 Ca         7.0778904851        8.5893626179       10.2785197466
  O         0.8706164528        8.6018658862       11.5227981036
  O         5.5743634277        8.6089739005       19.7322809507
  O        18.5907342824        8.6142362835        9.2103192033
  O         4.4324344325        8.6010944285       17.3427463009
  P         1.0979143827        8.6021918082        9.9802071527
  P         5.7133902649        8.6000342672       18.2439470195
 Ca         3.5303425438        8.5581725218        8.0709114144
 Ca         8.1768433379        8.6013419846       16.2876644847
  O         1.6697001467       12.0293124960        7.5692489869
  O         6.3518332709       12.0355017973       15.7269386701
  O         3.0577157588       12.0447021196        5.4392422339
  O         7.7999005429       12.0416167281       13.5405995718
  P         3.1127344127       12.0194419814        7.0072017935
  P         7.7810711707       12.0385707622       15.0814229718
 Ca         5.9616627504       12.0274153531        8.1893287356
 Ca         1.1161400668       12.0413392477       16.2864953973
  O         8.6186149786       12.0374945985        5.9761114479
  O         3.8764231383       12.0401526399       14.2653580064
  O         6.0535585458       12.0372826463        5.8323876263
  O         1.3246685197       12.0446487728       14.0282632224
  P         7.3895550582       12.0377642648        5.0062829406
  P         2.6857589559       12.0439955486       13.2543877662
 Ca         2.1748429787       12.0885901981       10.2218830215
 Ca         6.9586668207       12.0384778984       18.2387713811
  O         3.8367496492       12.0327925582        0.7391486146
  O         8.5557696249       12.0444518920        8.9481366750
  O         4.8857152193       12.0361370293        3.1426089556
  O         9.6620536055       12.0084820743       11.2655118863
  P         3.6285029544       12.0369487835        2.2119359824
  P         8.3020764898       12.0428316098       10.4893858193
 Ca         1.2129139042       12.0395901866        4.1063272848
 Ca         5.8631493746       12.0133846273       12.5197892502
 Ca         4.6976531744        6.7876931616        4.7703104939
 Ca         0.0311218381        6.8944229134       13.0134935165
 Ca        -0.0213707211       10.3370739263        7.5170928700
 Ca         4.7119324803       10.2060114018       15.7103629376
 Ca        -0.0191413791       13.7512415926        7.5325177534
 Ca         4.7080146797       13.8714609427       15.7126491944
 Ca         4.6925308941       10.4161108368        4.7845116214
 Ca         0.0115468013       10.3107944632       13.0141123187
  O         4.9104955145        7.6655243516        9.7570105203
  O        -0.0080833258        7.8457855451       18.1122350332
  H         4.3845759882        7.3683939273       10.5896678356
  H         0.1544413391        7.6875171429       19.0505208888
  O         4.2478764697       11.6018346957        9.7358924751
  O        -0.2267627359       11.1927387919       18.1673968354
  H         5.1696874338       10.5852630468       10.6650598785
  H         0.4653598970       10.9978009505       18.8632462029
  O         4.2058698050        5.6784786870       10.5652983007
  O        -0.2314961141        6.0479276358       18.1879731258
  H         5.0371459873        6.6988602599        9.6353688647
  H         0.5000317161        6.2155472903       18.8158496803
  O         4.9287291072        9.6234164468       10.6488472347
  O        -0.0186171387        9.3541901459       18.0728286306
  H         4.2847160627        9.8599824791        9.9379685188
  H         0.2159106801        9.5597250062       19.0074670577
  O        10.2378220242        7.3593779873        4.8246298063
  O        14.9222594100        7.3609183908       12.9738637726
  O        16.1920775769        7.3575809760        8.0978299801
  O        11.5654807395        7.2524138527       16.2165103666
  O        11.2017941908        7.3227179401        9.4900087043
  O        15.9160470618        7.3108797967       17.6822532355
  O        13.3487451772       10.7899647438        7.4483756724
  O        17.9871619700       10.7752140411       15.4797528121
  O        16.8082097768       10.7188512606        4.1843500093
  O        12.0574090952       10.7609854465       12.4164862080
  O        12.1791574569       10.7927791408        2.7725673127
  O        16.9509937694       10.7852858118       10.9037383190
  O        13.3432843071       13.2667325297        7.4421793574
  O        17.9874644984       13.3008359700       15.4814400335
  O        16.8084350958       13.3568515904        4.1858666753
  O        12.0891669194       13.2781742753       12.3467362831
  O        12.1817581361       13.2829531328        2.7720678769
  O        16.9740368236       13.3055887565       10.9250380890
  O        10.2387645887        9.8388379964        4.8241919316
  O        14.9215609096        9.8491513152       13.0498198062
  O        16.1938755147        9.8549088909        8.0809541738
  O        11.5645497358        9.9438194516       16.2177151920
  O        11.3204550081        9.8306971031        9.5194772284
  O        15.9177381827        9.8772261982       17.6779025877
  O        12.4899679104        8.6009333006        4.7252240725
  O        17.1559070999        8.5915671626       12.8789616689
  O        11.0529517234        8.6007025397        6.8528967774
  O        15.7061850988        8.5635370632       15.0062046581
  P        11.0396703831        8.5992579621        5.3075120187
  P        15.7174160923        8.6031726270       13.4303720073
 Ca        17.6748375913        8.5993092961        4.1380174791
 Ca        12.8857953733        8.6183196660       12.2892203297
  O        14.9657692318        8.5977441403        6.1982161764
  O        10.2444927107        8.5999985073       14.5173547328
  O        17.5221363195        8.5959233247        6.4020185403
  O        12.8211562886        8.5978136569       14.5779212403
  P        16.1694055844        8.6015438864        7.1830141082
  P        11.5025221463        8.5994240634       15.4412974328
 Ca        11.9663980690        8.5984404109        2.2469034444
 Ca        16.5769465555        8.5652197682       10.2686187169
  O        10.2980043791        8.6051398667       11.5222515462
  O        14.9953245813        8.5979021494       19.7324202261
  O         9.1478179950        8.6408992956        9.2073758089
  O        13.8558129376        8.5920012857       17.3428588299
  P        10.4983647937        8.5939123504        9.9776509388
  P        15.1373621950        8.5947064825       18.2436379677
 Ca        12.9612231969        8.5913680238        8.0937688019
 Ca        17.5822745525        8.5981067811       16.2539989283
  O        11.0970161480       12.0366809057        7.5701283872
  O        15.7745571955       12.0355708763       15.7319818235
  O        12.4885532122       12.0257690948        5.4470648141
  O        17.1955976324       12.0410757581       13.5268445012
  P        12.5350133868       12.0266977005        7.0121332775
  P        17.1954025131       12.0392457344       15.0704205848
 Ca        15.4292596642       12.0290690669        8.1075468401
 Ca        10.5173789196       12.0352294712       16.2871116633
  O        18.0387463118       12.0353917151        5.9800214405
  O        13.2991759943       12.0475033793       14.2656960703
  O        15.4784197997       12.0369822628        5.8368757664
  O        10.7453665951       12.0661007614       14.0336157779
  P        16.8180100387       12.0379039825        5.0021834519
  P        12.1021764503       12.0378813981       13.2585696375
 Ca        11.6236068850       12.0657685565       10.2126294875
 Ca        16.3515397523       12.0379746489       18.2431211100
  O        13.2618452312       12.0312335080        0.7395664885
  O        17.9794780652       12.0361558047        8.9482664917
  O        14.3098535385       12.0352652334        3.1463390715
  O         0.2193277100       12.0156045181       11.2938645456
  P        13.0520186800       12.0369986210        2.2121714192
  P        17.7321548643       12.0476049469       10.4860120796
 Ca        10.6274233793       12.0376726548        4.1057037876
 Ca        15.2734970763       12.0025105664       12.4072973473
 Ca        14.1094600355        6.7861628607        4.7767903339
 Ca         9.4489067642        6.8944371256       13.0007879130
 Ca         9.4000434010       10.3330322610        7.5283414953
 Ca        14.1359579072       10.2115237582       15.6979652374
 Ca         9.3923282705       13.7423248644        7.5233772973
 Ca        14.1365404537       13.8622003699       15.7084847980
 Ca        14.1146032907       10.4070006961        4.7745332912
 Ca         9.4556759452       10.3046972316       12.9969041295
  O        13.7539981233        7.7001749565        9.9259863006
  O         9.3932891961        7.7688270339       18.0829985100
  H        14.2015394737        7.4177891627       10.7437805991
  H         9.5853635772        7.6919258223       19.0232026701
  O        13.6313916178       11.3900684615       10.4857372959
  O         9.1998267638       11.1110388221       18.2030389836
  H        14.8720807005       10.5351462393       10.1585632117
  H         9.9299077761       10.9905780195       18.8088525429
  O        14.0611308950        5.6746955915       10.6485429480
  O         9.1842928212        6.0721089209       18.2153064950
  H        14.0810665083        6.4162154411        9.8456442619
  H         9.9406987892        6.2078474149       18.8126032940
  O        14.6074499738        9.5769977005       10.2731647372
  O         9.4171149553        9.4389708411       18.0978129755
  H        13.6336876612        9.8803167073       10.2351092537
  H         9.5535109333        9.4957217337       19.0428751496
  O         8.2610945706        6.7835774180       25.4727030503
  C         9.2714966221        7.2939957473       25.4598195173
  O        10.3403065922        7.8049251708       25.4069847467
     387
 i =       22, E =     -6921.3652192823
  O         0.8126127441        0.4819196340        4.8262417629
  O         5.4965153222        0.4887984081       12.9902553918
  O         6.7634549273        0.4754554317        8.0944598446
  O         2.1285224630        0.3828842947       16.2211534030
  O         1.7604152136        0.4523396221        9.4771293856
  O         6.4882224179        0.4338217443       17.6848128746
  O         3.9243340302        3.9182136013        7.4866254236
  O         8.5595334885        3.8988202380       15.4855552033
  O         7.3852319100        3.8415940647        4.1806965067
  O         2.6808623896        3.9364150219       12.3173500403
  O         2.7548121487        3.9166254351        2.7725485509
  O         7.6280441820        3.8856764232       10.9782968935
  O         3.9191321602        6.3945629993        7.4278792857
  O         8.5632998167        6.4181048236       15.4885874458
  O         7.3842681411        6.4756936292        4.1839660083
  O         2.6243461288        6.4599777909       12.4151478867
  O         2.7569427996        6.4015718088        2.7736750921
  O         7.5215089534        6.4044619039       10.9058475649
  O         0.8134224574        2.9612211792        4.8260620363
  O         5.5042628193        2.9972356667       13.1235720103
  O         6.7587065120        2.9723516114        8.0873818434
  O         2.1382497982        3.0647724313       16.2148636618
  O         1.9021875615        2.9542457123        9.5181458909
  O         6.4912506544        2.9984660181       17.6837627758
  O         3.0634366176        1.7250456981        4.7306276804
  O         7.7282612429        1.7188881589       12.8901335893
  O         1.6238559990        1.7266788797        6.8555632257
  O         6.2876780995        1.6780876273       15.0146327967
  P         1.6142578760        1.7210249370        5.3005450326
  P         6.2962193459        1.7305745916       13.4469037930
 Ca         8.2510907355        1.7163839632        4.1448071957
 Ca         3.4999043975        1.7269638232       12.2715351500
  O         5.5366059708        1.7267157102        6.2019571862
  O         0.8203543733        1.7284980230       14.5140555260
  O         8.0945239047        1.7272603242        6.4017434755
  O         3.3950428134        1.7162995307       14.5803358485
  P         6.7445729834        1.7176878983        7.1795044963
  P         2.0788974547        1.7260613744       15.4428428036
 Ca         2.5454214687        1.7179460921        2.2441557780
 Ca         7.1266879404        1.7272388606       10.2741377999
  O         0.8762368314        1.7357879649       11.5206812294
  O         5.5746519258        1.7213246245       19.7313062243
  O        18.5624547941        1.7745337133        9.2212731303
  O         4.4277401736        1.7175826454       17.3497806235
  P         1.0648665585        1.7242133313        9.9804473324
  P         5.7110804489        1.7168801776       18.2422261326
 Ca         3.5516332510        1.6894751928        8.0934275787
 Ca         8.1741013810        1.7183415380       16.2890311956
  O         1.6717693397        5.1536563107        7.5778376475
  O         6.3522743293        5.1609078308       15.7294498822
  O         3.0636635342        5.1223994787        5.4573074747
  O         7.7770151202        5.1730937894       13.5257746057
  P         3.1072914384        5.1491596206        7.0136600895
  P         7.7732411773        5.1610150306       15.0802628587
 Ca         6.0751353169        5.1636349476        8.0732193528
 Ca         1.1091409338        5.1579924811       16.2789446631
  O         8.6123049902        5.1563859533        5.9787634209
  O         3.8705005513        5.1572152484       14.2623750503
  O         6.0514078189        5.1519333816        5.8217742059
  O         1.3270145488        5.1192086158       14.0240566336
  P         7.3961549400        5.1573520256        4.9944073729
  P         2.6821580632        5.1617355486       13.2556963645
 Ca         2.1245273868        5.1542341972       10.2004973092
 Ca         6.9673707234        5.1548292623       18.2340673738
  O         3.8368436535        5.1524188563        0.7416301430
  O         8.5499352124        5.1541527520        8.9448586038
  O         4.8821698838        5.1566662807        3.1424481173
  O         9.6851524507        5.1983154089       11.2527891355
  P         3.6242873168        5.1575394834        2.2147703601
  P         8.3303490789        5.1560859037       10.4887159492
 Ca         1.2042050421        5.1566762661        4.0982783588
 Ca         5.8463511100        5.1439535284       12.4397186516
 Ca         4.6944902059       -0.0982014610        4.7819950372
 Ca         0.0113003135        0.0148412046       13.0053702127
 Ca        -0.0211744456        3.4437569441        7.5172029120
 Ca         4.7164801488        3.3238112412       15.6924840738
 Ca        -0.0282304575        6.8713562265        7.5141184151
 Ca         4.7107995880        6.9857435041       15.7143089191
 Ca         4.7020963250        3.5221912685        4.7635217309
 Ca         0.0192655424        3.4150197956       13.0035466354
  O         4.2826639427        0.5940892858        9.9413861481
  O        -0.1936010660        0.9613482485       18.1710073023
  H         4.8460023448        0.4327276769       10.7197905399
  H         0.2569727291        0.7618880683       19.0076513461
  O         5.3126864531        4.7104745049       10.2595855802
  O        -0.2223459725        4.2494459571       18.1896102995
  H         4.7777219171        4.0701606874        9.7716950729
  H         0.4786507423        4.1274381752       18.8387760748
  O         5.3572724715       12.3675342936       10.4835650165
  O        -0.1897241288       12.8898648449       18.1810713408
  H         4.3880237982       13.4383245204        9.6300389333
  H         0.4972368972       13.0748219279       18.8605968343
  O         5.0891670308        2.5046508481       10.6402110960
  O         0.1431257740        2.4551051030       18.0774483877
  H         4.2397812828        2.8194330837       10.3161396365
  H         0.1080102782        2.6275897165       19.0211063917
  O        10.2404575465        0.4803894490        4.8263620925
  O        14.9183309188        0.4882675556       12.9931093866
  O        16.2365779596        0.4444134798        8.0423283426
  O        11.5615156615        0.3786629145       16.2201211621
  O        11.3054913249        0.4790629427        9.5151237067
  O        15.8995634909        0.4290810606       17.6789675499
  O        13.3345264175        3.8776139695        7.3918821945
  O        17.9857464236        3.8994658111       15.4821080144
  O        16.8143368822        3.8407364934        4.1784976017
  O        12.1109659498        3.9446535650       12.3312228866
  O        12.1787643037        3.9164940277        2.7712458399
  O        16.9467081712        3.9046107218       10.9344865927
  O        13.3471025852        6.3821832127        7.4300214659
  O        17.9888172111        6.4206915214       15.4834143775
  O        16.8129712498        6.4782905351        4.1808713382
  O        12.0769278668        6.4398347893       12.4021094939
  O        12.1806408091        6.4025868450        2.7703161755
  O        16.9459454373        6.4145259367       10.9074276024
  O        10.2389154450        2.9582767926        4.8284115195
  O        14.9330251133        2.9874074741       13.0720644138
  O        16.1671599710        2.9432989815        8.1077777394
  O        11.5666930915        3.0657733483       16.2161418814
  O        11.3077944848        2.9716762112        9.5114827704
  O        15.9255456076        2.9922811096       17.6838640678
  O        12.4879903812        1.7178186097        4.7278032867
  O        17.1523641584        1.7291604432       12.8835265104
  O        11.0535037885        1.7105970320        6.8542780735
  O        15.7073624881        1.6935463295       15.0152136642
  P        11.0406129090        1.7192252365        5.3028784382
  P        15.7162075361        1.7185238901       13.4404375038
 Ca        17.6759533751        1.7200076827        4.1363367490
 Ca        12.8220047929        1.7428974242       12.3782153636
  O        14.9659737968        1.7165241821        6.1962531995
  O        10.2527297804        1.7213936310       14.5119929897
  O        17.5246297129        1.7582462692        6.3959432671
  O        12.8227886527        1.7203996929       14.5949853860
  P        16.1723795918        1.7152190100        7.1699362946
  P        11.4978014682        1.7208967957       15.4534527406
 Ca        11.9699775786        1.7206923792        2.2470922033
 Ca        16.4529227057        1.7111785811       10.2938379565
  O        10.3007690265        1.7240481060       11.5208447420
  O        14.9954975104        1.7339117475       19.7305615773
  O         9.1794132547        1.7232856508        9.1948054016
  O        13.8523302191        1.7358425035       17.3496905256
  P        10.5187635220        1.7278727866        9.9809419424
  P        15.1357111404        1.7191418422       18.2412031334
 Ca        12.9245814986        1.6862400040        8.0990029581
 Ca        17.5869734723        1.7222247847       16.2519941422
  O        11.1004109049        5.1476069329        7.5698276400
  O        15.7752355883        5.1579626741       15.7254290568
  O        12.4859292024        5.1594655470        5.4413208582
  O        17.2109713078        5.1720518573       13.5293717870
  P        12.5393022825        5.1403859623        7.0062209174
  P        17.2013403450        5.1609759876       15.0847551922
 Ca        15.5070332038        5.1568925968        8.0284916948
 Ca        10.5071287772        5.1606175074       16.2941209297
  O        18.0325752187        5.1589052203        5.9822331925
  O        13.3026167977        5.1548143181       14.2658068068
  O        15.4762353632        5.1528621647        5.8026264117
  O        10.7498584879        5.1263043141       14.0332466426
  P        16.8206230824        5.1576223097        4.9854489475
  P        12.1054892054        5.1682812786       13.2709758218
 Ca        11.7294274311        5.1841773201       10.2146607802
 Ca        16.3716664900        5.1586341704       18.2402205011
  O        13.2610212666        5.1539772619        0.7410412936
  O        17.9836416342        5.1559187446        8.9486244165
  O        14.3062305988        5.1578026300        3.1413996704
  O         0.2118951361        5.1682976808       11.2804252243
  P        13.0495494431        5.1575950930        2.2146889633
  P        17.7172773555        5.1548198086       10.4820577765
 Ca        10.6335886315        5.1595547184        4.1085686208
 Ca        15.3255678556        5.1441997718       12.4672324480
 Ca        14.1145473438       -0.0911538123        4.7719584510
 Ca         9.4338543069        0.0113180463       12.9900544041
 Ca         9.4074297358        3.4545359372        7.5267421584
 Ca        14.1295039226        3.3267494203       15.7011688729
 Ca         9.4092171212        6.8731158840        7.5412859544
 Ca        14.1216796070        6.9897458054       15.7101385791
 Ca        14.1075534850        3.5292529147        4.7791611963
 Ca         9.4212988473        3.4275669817       12.9901177127
  O        14.2936566384        0.8399724340        9.6523715968
  O         9.3968030025        0.8629592216       18.1084406937
  H        13.7694809287        0.4735878329       10.5033582899
  H         9.5578050710        0.8380525402       19.0552688140
  O        14.1244659895        4.5842782045        9.6090400983
  O         9.2028840499        4.2451268147       18.1586653030
  H        14.2974041083        3.6502159340       10.9385326936
  H         9.9099109099        4.1405789225       18.8593918344
  O        14.2703564289       12.7294289542       10.6620171344
  O         9.2233445755       12.9696624858       18.1719818003
  H        14.4937424894       13.6204648314        9.5003277260
  H         9.9191833409       13.0588194353       18.8032248745
  O        14.1586688846        2.7028232891       10.7321773243
  O         9.4420917108        2.5616653723       18.0619418867
  H        13.9475792503        2.9964013010        9.7891447699
  H         9.5969292788        2.6184120710       19.0287662276
  O         0.8142788112        7.3555469378        4.8261544926
  O         5.4902265685        7.3693742041       12.9727494805
  O         6.8012671242        7.3323950717        8.0486242426
  O         2.1333904474        7.2574345010       16.2182695255
  O         1.8735714234        7.3505837308        9.5127364203
  O         6.4857057754        7.3131666216       17.6862033541
  O         3.9012628621       10.7516093286        7.3718528320
  O         8.5644804429       10.7758308995       15.4914607648
  O         7.3866997307       10.7216681297        4.1814512280
  O         2.6659766118       10.7891772129       12.3664548718
  O         2.7541146671       10.7947210672        2.7717815229
  O         7.5322137264       10.7814630592       10.9122870096
  O         3.9167741414       13.2690486307        7.4135264618
  O         8.5647335506       13.3010184977       15.4915895621
  O         7.3866312401       13.3556252244        4.1823648390
  O         2.6731580776       13.2817781390       12.3454738582
  O         2.7562481914       13.2815064841        2.7699546962
  O         7.5957109365       13.3221810783       10.9766370834
  O         0.8114924746        9.8377021540        4.8273840753
  O         5.5049943824        9.8606086706       13.1110783141
  O         6.7461519407        9.8325074027        8.1025927983
  O         2.1367357702        9.9409967774       16.2159183651
  O         1.8964759245        9.8360443879        9.5133575494
  O         6.4900659537        9.8811982530       17.6805347581
  O         3.0627683907        8.5941196751        4.7345327161
  O         7.7295993349        8.5974684852       12.8830674554
  O         1.6138050374        8.5863994054        6.8537085657
  O         6.2885064054        8.5526176888       15.0216676848
  P         1.6124392150        8.5980235282        5.2979021254
  P         6.3015992866        8.5933827333       13.4474825848
 Ca         8.2515840929        8.6030886447        4.1448350143
 Ca         3.4436457853        8.6650870957       12.3653686378
  O         5.5369392196        8.5890226090        6.2019993616
  O         0.8255491521        8.5961889713       14.5118192395
  O         8.0992078058        8.6312886055        6.3953964735
  O         3.3991558582        8.5948505515       14.5920149897
  P         6.7493643086        8.6030067722        7.1717169770
  P         2.0758057255        8.5968598287       15.4496649205
 Ca         2.5456473024        8.6011653922        2.2418532495
 Ca         7.0788100255        8.5904060968       10.2759108920
  O         0.8703293519        8.6024170305       11.5198284130
  O         5.5744581053        8.6101205379       19.7304007979
  O        18.5947183345        8.6154794458        9.2090542788
  O         4.4286988280        8.6012799718       17.3482079250
  P         1.0949494001        8.6027791516        9.9824565343
  P         5.7122783772        8.5998867674       18.2420168470
 Ca         3.5285035238        8.5584427223        8.0625642495
 Ca         8.1798631117        8.6002427752       16.2969287379
  O         1.6711296155       12.0279264679        7.5691430883
  O         6.3528590874       12.0351625455       15.7243099863
  O         3.0569224902       12.0454787254        5.4400185280
  O         7.8006895706       12.0418085502       13.5344224873
  P         3.1096587498       12.0186743951        7.0028964333
  P         7.7821471748       12.0388861802       15.0860202651
 Ca         5.9583283724       12.0260755969        8.1952065254
 Ca         1.1134695803       12.0414456345       16.2853561282
  O         8.6193146600       12.0374955321        5.9742825475
  O         3.8725780726       12.0406535279       14.2652065987
  O         6.0550240132       12.0371919556        5.8307631060
  O         1.3275218732       12.0459218436       14.0279526048
  P         7.3908637468       12.0377553453        5.0021690960
  P         2.6838164059       12.0457773785       13.2636328418
 Ca         2.1737319638       12.0909299621       10.2199561929
 Ca         6.9668243330       12.0382675913       18.2352996258
  O         3.8362433805       12.0321717162        0.7409914878
  O         8.5560574352       12.0461740278        8.9504345296
  O         4.8823108888       12.0359583829        3.1395642171
  O         9.6587847956       12.0060331856       11.2682577969
  P         3.6252875307       12.0368562995        2.2146270022
  P         8.3027399676       12.0437505333       10.4906091346
 Ca         1.2126297907       12.0397772746        4.1070028228
 Ca         5.8587665578       12.0156749391       12.5216678384
 Ca         4.6984928281        6.7875088523        4.7697993440
 Ca         0.0330755719        6.8942983435       13.0120851713
 Ca        -0.0216442452       10.3379874117        7.5154795407
 Ca         4.7102790394       10.2057356261       15.7088672227
 Ca        -0.0191361856       13.7517339361        7.5327045443
 Ca         4.7052752997       13.8713619689       15.7115322529
 Ca         4.6930123185       10.4167044924        4.7858051863
 Ca         0.0112244576       10.3107679748       13.0124894263
  O         4.9101755145        7.6650649549        9.7603316559
  O         0.0046992430        7.8265126361       18.1193931377
  H         4.3910949703        7.3842210388       10.5786991475
  H         0.1483250037        7.7003703159       19.0517501621
  O         4.2381077667       11.6170590753        9.7110822008
  O        -0.2241619568       11.1828005100       18.1760024635
  H         5.1780981985       10.5904891601       10.6862265506
  H         0.4665572853       11.0208849138       18.8675923629
  O         4.1944491456        5.6695609194       10.5781458211
  O        -0.2247252062        6.0564435670       18.1987710668
  H         5.0392493349        6.6937595217        9.6119808577
  H         0.4978771916        6.1961903365       18.8154061526
  O         4.9217355087        9.6275248912       10.6509205799
  O        -0.0075502810        9.3730787051       18.0776607610
  H         4.2865732628        9.8530630284        9.9481054969
  H         0.2139913713        9.5465856154       19.0095998700
  O        10.2386746336        7.3605236240        4.8254413834
  O        14.9211401277        7.3621850544       12.9665109585
  O        16.1932092986        7.3580909719        8.0984966967
  O        11.5656461515        7.2555120360       16.2158853270
  O        11.1934078714        7.3199686309        9.4890134844
  O        15.9136614976        7.3138559325       17.6837167997
  O        13.3488914960       10.7890178981        7.4470733887
  O        17.9839778147       10.7775979344       15.4792117344
  O        16.8084568690       10.7214074216        4.1830272194
  O        12.0529505970       10.7564209432       12.4232619634
  O        12.1788810701       10.7949745079        2.7718721490
  O        16.9499017907       10.7855959371       10.9009528584
  O        13.3440848822       13.2659911501        7.4414654640
  O        17.9843365858       13.2984899140       15.4810301991
  O        16.8087211750       13.3543511021        4.1845083705
  O        12.0874451552       13.2801438858       12.3492328046
  O        12.1814323604       13.2806414304        2.7713027943
  O        16.9741438679       13.3070106949       10.9230130805
  O        10.2398342538        9.8377387415        4.8248688290
  O        14.9203979122        9.8491149043       13.0502055853
  O        16.1959309925        9.8558141975        8.0790093564
  O        11.5650427131        9.9406616766       16.2169074267
  O        11.3212529004        9.8275697364        9.5208378013
  O        15.9157564104        9.8739837233       17.6790937571
  O        12.4882048393        8.6010745187        4.7264995217
  O        17.1540088656        8.5911147936       12.8806292808
  O        11.0521483030        8.6009331224        6.8531927165
  O        15.7069233750        8.5600862740       15.0047777991
  P        11.0390847355        8.5993120654        5.3024469786
  P        15.7180863287        8.6014894264       13.4356658479
 Ca        17.6740445979        8.5994479698        4.1370833153
 Ca        12.8830853545        8.6206561559       12.2868484611
  O        14.9686251451        8.5973330905        6.1991339868
  O        10.2435207765        8.5998233906       14.5192971945
  O        17.5218362505        8.5950962852        6.4022893807
  O        12.8214439499        8.5974395673       14.5775050562
  P        16.1701850658        8.6023715442        7.1781101765
  P        11.5026413268        8.5993637155       15.4426648983
 Ca        11.9698824954        8.5984210872        2.2485129169
 Ca        16.5825240103        8.5618224525       10.2650817738
  O        10.2976732126        8.6054434057       11.5201272609
  O        14.9952771536        8.5977365985       19.7305415826
  O         9.1454493812        8.6445742643        9.2061062996
  O        13.8522742404        8.5913958661       17.3484304930
  P        10.4957797836        8.5955814778        9.9786554828
  P        15.1359192174        8.5940071104       18.2412942336
 Ca        12.9596550181        8.5923628962        8.0855896911
 Ca        17.5837136061        8.5987675121       16.2606051718
  O        11.0981365378       12.0365456503        7.5701270369
  O        15.7758409346       12.0351492880       15.7296545654
  O        12.4884933345       12.0244623623        5.4495367929
  O        17.1958708142       12.0415673880       13.5208647859
  P        12.5330684977       12.0246207906        7.0097678941
  P        17.1949775427       12.0392987591       15.0741703084
 Ca        15.4281740382       12.0256048130        8.1062733147
 Ca        10.5135618624       12.0350863550       16.2860136804
  O        18.0391624484       12.0351548280        5.9788653482
  O        13.2961366611       12.0491645356       14.2662792967
  O        15.4802047919       12.0368337567        5.8344209870
  O        10.7466024669       12.0697002921       14.0348675052
  P        16.8190001761       12.0377979842        4.9980694383
  P        12.0998590538       12.0382495922       13.2666874918
 Ca        11.6175610818       12.0682787604       10.2095936328
 Ca        16.3577967180       12.0381703997       18.2397933689
  O        13.2614420617       12.0304357921        0.7415263907
  O        17.9807867979       12.0363522226        8.9500270981
  O        14.3063864884       12.0350016509        3.1435038749
  O         0.2165838570       12.0134653127       11.2991296105
  P        13.0488051843       12.0367786697        2.2150866036
  P        17.7321661378       12.0467236099       10.4866403247
 Ca        10.6262549071       12.0376230151        4.1066656398
 Ca        15.2700863930       11.9992909406       12.4091339231
 Ca        14.1090079671        6.7859115580        4.7771059497
 Ca         9.4500821555        6.8948975870       12.9975809661
 Ca         9.3992284640       10.3343593313        7.5283802681
 Ca        14.1327752366       10.2116650120       15.6953703756
 Ca         9.3906239225       13.7413307974        7.5228590006
 Ca        14.1335112146       13.8614855599       15.7072236624
 Ca        14.1150229398       10.4068624416        4.7745993784
 Ca         9.4572658757       10.3050976603       12.9933055585
  O        13.7486396377        7.6883541087        9.9311198806
  O         9.4027894336        7.7625334163       18.0869069327
  H        14.2005727895        7.4404170284       10.7533450821
  H         9.5783605538        7.7108825833       19.0264119990
  O        13.6144522377       11.4066625949       10.4866783110
  O         9.2043778731       11.1133953860       18.2111052975
  H        14.8976050167       10.5291578785       10.1724984774
  H         9.9320950196       11.0126481119       18.8100828823
  O        14.0635343814        5.6562855441       10.6491645826
  O         9.1869274122        6.0693941092       18.2219912269
  H        14.0628109244        6.4225078693        9.8506256048
  H         9.9450302319        6.1828396546       18.8151505221
  O        14.6095141033        9.5785857762       10.2612518170
  O         9.4277948091        9.4477564569       18.1000896310
  H        13.6427741980        9.8624685768       10.2389054144
  H         9.5451993543        9.4788914940       19.0475845861
  O         8.2669506692        6.7870404404       25.4733658887
  C         9.2783009779        7.2965651168       25.4597850230
  O        10.3413154611        7.7982951027       25.4063100334
     387
 i =       23, E =     -6921.5036376587
  O         0.8129606290        0.4819138434        4.8264196124
  O         5.4879967340        0.4958543757       12.9693565269
  O         6.7606999383        0.4742166041        8.0964912360
  O         2.1278468430        0.3906068188       16.2247731972
  O         1.7160007620        0.4426680805        9.4654665362
  O         6.4819945208        0.4345307797       17.6906489990
  O         3.9284404271        3.9142636672        7.4981810501
  O         8.5511204100        3.9007066606       15.4882642393
  O         7.3856002250        3.8454804934        4.1700629195
  O         2.6761074522        3.9365840715       12.3130053494
  O         2.7489689645        3.9131167924        2.7712725627
  O         7.6524291152        3.8768068862       10.9936409429
  O         3.9249315452        6.3985502822        7.4235786728
  O         8.5570918893        6.4186290441       15.4928183394
  O         7.3840811661        6.4713210110        4.1739278408
  O         2.6023143852        6.4855461027       12.4301978373
  O         2.7512110379        6.4040777506        2.7724658197
  O         7.5174011654        6.4084206390       10.8995262724
  O         0.8135311961        2.9639940460        4.8252835857
  O         5.4998506000        3.0105119005       13.1630648439
  O         6.7586027550        2.9761290302        8.0871861530
  O         2.1428442764        3.0595239419       16.2175454860
  O         1.9117964488        2.9448296096        9.5186660389
  O         6.4871375060        2.9941048152       17.6883307240
  O         3.0620974696        1.7276437832        4.7352201394
  O         7.7256965155        1.7220420334       12.8959690548
  O         1.6233686053        1.7309098697        6.8556556396
  O         6.2975822171        1.6588976760       15.0239112592
  P         1.6122660640        1.7223561777        5.2933328719
  P         6.2958235171        1.7305279768       13.4821427155
 Ca         8.2495035881        1.7142444985        4.1434674288
 Ca         3.5099955547        1.7382722420       12.2624437540
  O         5.5399745653        1.7302090789        6.2004028707
  O         0.8097655299        1.7312815582       14.5152033423
  O         8.0990793847        1.7313310036        6.3974056619
  O         3.3952712859        1.7116522869       14.5712167725
  P         6.7492183510        1.7190077332        7.1705115984
  P         2.0795386714        1.7257914685       15.4455793983
 Ca         2.5637412925        1.7168981473        2.2514972290
 Ca         7.1251283256        1.7329632547       10.2636254905
  O         0.8746468158        1.7415833317       11.5147207211
  O         5.5729459250        1.7214483104       19.7274058219
  O        18.5380951223        1.7950025003        9.2216213391
  O         4.4038212228        1.7161924641       17.3726707127
  P         1.0459658094        1.7291896154        9.9869029560
  P         5.7025481977        1.7179186419       18.2452869731
 Ca         3.5535798356        1.6904204657        8.0697299540
 Ca         8.1786824044        1.7207288822       16.3204408375
  O         1.6693728822        5.1522882498        7.5851488131
  O         6.3499546723        5.1624517146       15.7238313143
  O         3.0637431340        5.1129380571        5.4674092003
  O         7.7733854915        5.1829320327       13.5161177934
  P         3.1046013452        5.1405926197        7.0130583994
  P         7.7692080059        5.1626645258       15.0782807044
 Ca         6.1132440407        5.1630325507        8.0339575478
 Ca         1.0878145035        5.1556468909       16.2808678010
  O         8.6154905796        5.1553371679        5.9772347329
  O         3.8583968862        5.1576674408       14.2669491936
  O         6.0505740581        5.1471787543        5.8077632858
  O         1.3231747086        5.1111635176       14.0254824706
  P         7.4029694087        5.1564423098        4.9800504785
  P         2.6777274963        5.1655912578       13.2748454732
 Ca         2.0865512462        5.1463638275       10.1852998877
 Ca         7.0030305782        5.1560726299       18.2115420775
  O         3.8361707971        5.1488742658        0.7506131753
  O         8.5504796356        5.1468289447        8.9428186610
  O         4.8733943130        5.1557687837        3.1333139344
  O         9.6922475715        5.2141773001       11.2552553401
  P         3.6095953720        5.1568597243        2.2142543304
  P         8.3429488564        5.1579551011       10.4969977130
 Ca         1.2016433628        5.1553865564        4.0981252098
 Ca         5.8201782163        5.1328536941       12.4217961921
 Ca         4.6967599954       -0.0999667888        4.7867508658
 Ca         0.0096389246        0.0191211548       12.9957404794
 Ca        -0.0232500627        3.4431362280        7.5094856501
 Ca         4.7109354573        3.3222099541       15.6744162743
 Ca        -0.0318173869        6.8714250678        7.5054880658
 Ca         4.7002399653        6.9803917930       15.7093654177
 Ca         4.7071294071        3.5174265019        4.7582664139
 Ca         0.0213057477        3.4126207432       12.9954659523
  O         4.2457355932        0.5455734227        9.9543082464
  O        -0.2143909264        0.8766077121       18.2139772231
  H         4.8407381445        0.4910649074       10.7436511676
  H         0.2703954630        0.8141305895       19.0323669774
  O         5.3608550992        4.7818810599       10.1481776336
  O        -0.2178774502        4.2191615260       18.2159652638
  H         4.8252442685        4.0833067431        9.7603419663
  H         0.4949958739        4.2111814752       18.8650341054
  O         5.4360689771       12.2640951860       10.4551223448
  O        -0.1659503214       12.9514362046       18.2059696940
  H         4.3077871278       13.4130091282        9.5420105666
  H         0.5142209935       12.9799156005       18.8855246607
  O         5.0694248809        2.4800601325       10.6851698851
  O         0.2420205828        2.5289464156       18.0848990920
  H         4.2031384628        2.7580182484       10.3481183526
  H         0.0669514849        2.5781280700       19.0422301984
  O        10.2417459247        0.4778624373        4.8242643571
  O        14.9127480362        0.4921421845       12.9776106094
  O        16.2672334367        0.4288990907        8.0189028714
  O        11.5624450788        0.3829137154       16.2253598197
  O        11.3112188967        0.4821821233        9.5145322564
  O        15.8811672178        0.4280626679       17.6827499874
  O        13.3357709935        3.8554438158        7.3477062501
  O        17.9773304497        3.8982061416       15.4852209221
  O        16.8173180210        3.8441123784        4.1654264032
  O        12.1105804121        3.9480501791       12.3321683674
  O        12.1727962115        3.9126478149        2.7698541771
  O        16.9393973403        3.8999858127       10.9330392157
  O        13.3497020481        6.3821689526        7.4185201497
  O        17.9817708067        6.4223122524       15.4878431014
  O        16.8149407104        6.4745478916        4.1692437410
  O        12.0738983244        6.4549706107       12.4131435973
  O        12.1746552698        6.4056447100        2.7681040877
  O        16.9410184877        6.4175591900       10.8992828221
  O        10.2404573114        2.9595822610        4.8283901090
  O        14.9281163774        2.9981237933       13.0957814213
  O        16.1681411632        2.9332422651        8.1123885140
  O        11.5681652602        3.0612812058       16.2208946074
  O        11.3150244044        2.9769148084        9.5122376344
  O        15.9279596569        2.9883490458       17.6868442976
  O        12.4872383351        1.7154784909        4.7303327088
  O        17.1503110836        1.7347748257       12.8865642899
  O        11.0439149816        1.7038705534        6.8500284925
  O        15.7146181651        1.6800217581       15.0094229750
  P        11.0385462613        1.7181660794        5.2935509885
  P        15.7141087922        1.7169107379       13.4769644254
 Ca        17.6742855633        1.7195992210        4.1327110655
 Ca        12.7969013156        1.7433971890       12.3905453805
  O        14.9729231355        1.7106503855        6.1891691638
  O        10.2491876547        1.7237030973       14.5106152775
  O        17.5294432812        1.7674673962        6.3894732776
  O        12.8280626226        1.7206595572       14.5951784784
  P        16.1798097045        1.7144457033        7.1541059098
  P        11.4965791439        1.7219697853       15.4630136630
 Ca        11.9885634838        1.7210313879        2.2552380989
 Ca        16.4417979422        1.7153046698       10.2830671816
  O        10.3003943750        1.7283259305       11.5117752336
  O        14.9944576471        1.7394899455       19.7252649703
  O         9.1823033813        1.7261750625        9.1820922920
  O        13.8277062761        1.7425606105       17.3723312585
  P        10.5163920130        1.7315565452        9.9876178717
  P        15.1260129065        1.7207737927       18.2441233511
 Ca        12.8941314469        1.6923530811        8.0478154303
 Ca        17.5925543436        1.7206225562       16.2778055936
  O        11.1003025316        5.1395981861        7.5706968833
  O        15.7753466617        5.1583492827       15.7177669927
  O        12.4828644744        5.1600418884        5.4348282319
  O        17.2159228623        5.1802893911       13.5206681534
  P        12.5363237947        5.1361042034        6.9979093165
  P        17.1967716448        5.1620460857       15.0853738673
 Ca        15.5297691836        5.1630605293        8.0082459944
 Ca        10.4858696546        5.1608362357       16.2883963036
  O        18.0337886917        5.1594510321        5.9808761802
  O        13.2963879187        5.1526158473       14.2746329396
  O        15.4758433374        5.1494822545        5.7866822029
  O        10.7475897836        5.1173069851       14.0364965996
  P        16.8248193961        5.1574523051        4.9686675250
  P        12.0999644472        5.1759848219       13.2947615861
 Ca        11.7539511233        5.1921955773       10.2053475665
 Ca        16.4098117107        5.1572860086       18.2226969039
  O        13.2602255005        5.1511748948        0.7496241475
  O        17.9903070128        5.1520599791        8.9495953636
  O        14.2975888581        5.1574891144        3.1313528928
  O         0.1941050781        5.1732351900       11.3020843074
  P        13.0353419942        5.1574137923        2.2142357727
  P        17.7124792792        5.1534549401       10.4888089950
 Ca        10.6325832145        5.1596061796        4.1127845293
 Ca        15.3164350303        5.1551958413       12.4722581357
 Ca        14.1157656996       -0.0911958856        4.7720801404
 Ca         9.4300403597        0.0086119089       12.9729471077
 Ca         9.4098347726        3.4571150287        7.5249033026
 Ca        14.1207622980        3.3277715522       15.6910339597
 Ca         9.4130968187        6.8742987551        7.5478039651
 Ca        14.1050973390        6.9852688096       15.7046104294
 Ca        14.1039065101        3.5273397492        4.7825224840
 Ca         9.4131312533        3.4292595578       12.9716645095
  O        14.2662587052        0.8654408813        9.6266405286
  O         9.4460250116        0.8253467421       18.1145681927
  H        13.8066726518        0.5065300261       10.4125715323
  H         9.5249372101        0.9109929624       19.0805035467
  O        14.1019972837        4.6033447729        9.4739396435
  O         9.2196089526        4.2628931664       18.2000563708
  H        14.3039115552        3.6149867457       11.0346471450
  H         9.9189976823        4.2445639986       18.8732416563
  O        14.2766523294       12.7267282027       10.6635452552
  O         9.2206172299       12.9488663961       18.1927914316
  H        14.5179756040       13.6837117780        9.4290057008
  H         9.9544021925       12.9612992893       18.8338119322
  O        14.1519408148        2.7032184700       10.7585920463
  O         9.4849141570        2.5955384373       18.0795621781
  H        13.9425612615        2.9541291735        9.8497863401
  H         9.5710767804        2.5394519290       19.0420085640
  O         0.8141726601        7.3519578467        4.8249906534
  O         5.4839672222        7.3756567055       12.9431265458
  O         6.8235485492        7.3230081925        8.0262287141
  O         2.1351383611        7.2612719123       16.2224261031
  O         1.8812723235        7.3478966195        9.5129011364
  O         6.4768719774        7.3166042158       17.6927890272
  O         3.8977448364       10.7290958715        7.3344877293
  O         8.5554410852       10.7763806900       15.4956610727
  O         7.3864816697       10.7271407573        4.1717703158
  O         2.6661453445       10.7833096300       12.3736167691
  O         2.7481100180       10.7910321961        2.7705481327
  O         7.5383553895       10.7666618610       10.9105829382
  O         3.9178527774       13.2751530128        7.3908942109
  O         8.5556462510       13.2996262092       15.4964441779
  O         7.3864093385       13.3501677868        4.1735343384
  O         2.6741590076       13.2932179968       12.3518358364
  O         2.7501148041       13.2843711381        2.7675387501
  O         7.6195339368       13.3308665005       10.9915944046
  O         0.8116469840        9.8378116499        4.8280200269
  O         5.4961550735        9.8690933356       13.1381390590
  O         6.7431132471        9.8297723280        8.1080749821
  O         2.1378679659        9.9341990938       16.2186988419
  O         1.9081382811        9.8400357757        9.5144103051
  O         6.4852108312        9.8781933065       17.6836809565
  O         3.0615821838        8.5901153560        4.7405232400
  O         7.7266959152        8.5970575180       12.8856804193
  O         1.6059813788        8.5790926585        6.8538300375
  O         6.2972121148        8.5375557720       15.0191526661
  P         1.6091075675        8.5958201155        5.2898468389
  P         6.3024301719        8.5895512059       13.4879687667
 Ca         8.2500479505        8.6055856862        4.1429561219
 Ca         3.4403139882        8.6792345034       12.3762943066
  O         5.5405071988        8.5805953005        6.1987307686
  O         0.8199150414        8.5964579030       14.5120091274
  O         8.1023518005        8.6416300357        6.3903772842
  O         3.4029695387        8.5938164590       14.5888839813
  P         6.7590098199        8.6059580228        7.1532384409
  P         2.0747209713        8.5983641787       15.4581357002
 Ca         2.5640676875        8.6023476242        2.2480567097
 Ca         7.0847804148        8.5964088998       10.2649972231
  O         0.8673073583        8.6058796925       11.5099805943
  O         5.5728916427        8.6164306113       19.7264029442
  O        18.6042000566        8.6215580453        9.1965824003
  O         4.4047216436        8.6024244340       17.3708065802
  P         1.0929991496        8.6044172974        9.9923646928
  P         5.7037989344        8.5992870236       18.2450129507
 Ca         3.5207207538        8.5621753469        8.0275819715
 Ca         8.1858949291        8.5964377635       16.3281521792
  O         1.6697773713       12.0207876111        7.5704946378
  O         6.3520307715       12.0334499343       15.7172361361
  O         3.0527551763       12.0507103571        5.4315806954
  O         7.8007981741       12.0428151081       13.5226463699
  P         3.1004443483       12.0158342775        6.9884870611
  P         7.7800110883       12.0395077213       15.0851927948
 Ca         5.9468170878       12.0185998446        8.2158086502
 Ca         1.0947842553       12.0415020598       16.2802036621
  O         8.6281000582       12.0375689869        5.9700655404
  O         3.8615969740       12.0442358018       14.2732788627
  O         6.0559828216       12.0367208859        5.8247118954
  O         1.3252534413       12.0531339792       14.0300636408
  P         7.3956662235       12.0379549040        4.9919810718
  P         2.6765181245       12.0492918443       13.2875583666
 Ca         2.1663589739       12.0984269753       10.2161321032
 Ca         7.0026985621       12.0372266536       18.2134916388
  O         3.8353127315       12.0287161367        0.7492356045
  O         8.5577515692       12.0566529920        8.9540462482
  O         4.8737210953       12.0350695011        3.1300865808
  O         9.6501426152       11.9969324538       11.2848342502
  P         3.6108587743       12.0361423715        2.2140253801
  P         8.3061294939       12.0399355314       10.5019109495
 Ca         1.2111285189       12.0405413064        4.1089499452
 Ca         5.8424153659       12.0276092854       12.5397679604
 Ca         4.7011152555        6.7871761453        4.7674956174
 Ca         0.0423064277        6.8934162375       13.0080295763
 Ca        -0.0236121994       10.3418111509        7.5074912337
 Ca         4.7064008633       10.2044129116       15.6989391824
 Ca        -0.0210103915       13.7542493152        7.5337079105
 Ca         4.6952321287       13.8699232030       15.7050550584
 Ca         4.6944080225       10.4179989800        4.7917371465
 Ca         0.0097662351       10.3099378702       13.0069358224
  O         4.9186769617        7.6374955814        9.7512341333
  O         0.0457475978        7.7239836499       18.1151176764
  H         4.4134324498        7.4414607951       10.5395691002
  H         0.1223422101        7.7590349214       19.0909275359
  O         4.2099788058       11.6830898651        9.6096994339
  O        -0.2157030730       11.1263757719       18.2141500517
  H         5.2262557122       10.6073132800       10.7731017029
  H         0.4749069232       11.1140829345       18.8894174801
  O         4.1516296393        5.6377025941       10.6377437107
  O        -0.2230320481        6.0804447506       18.2173593517
  H         5.0496181716        6.6938162173        9.5142329225
  H         0.5167870513        6.1111287575       18.8377176821
  O         4.9029435295        9.6637554807       10.6790464529
  O         0.0393936002        9.4784312663       18.0904173134
  H         4.2839965143        9.8290027693        9.9782363574
  H         0.2071180557        9.4892930211       19.0342832148
  O        10.2392128842        7.3586898490        4.8239153797
  O        14.9147850319        7.3636699122       12.9307556766
  O        16.1968184230        7.3601477373        8.1003911057
  O        11.5681673233        7.2607369878       16.2186554452
  O        11.1548949544        7.3066552776        9.4811081061
  O        15.9083381127        7.3156742335       17.6871423384
  O        13.3520535890       10.7802546242        7.4414517230
  O        17.9775735692       10.7793234626       15.4819973924
  O        16.8081487526       10.7263912437        4.1735548238
  O        12.0275791873       10.7374736378       12.4570816738
  O        12.1729000505       10.7913211120        2.7707300511
  O        16.9420899532       10.7825777914       10.8929650417
  O        13.3496331502       13.2638995614        7.4384440862
  O        17.9782850173       13.2967320263       15.4851200305
  O        16.8085995642       13.3493766813        4.1748625959
  O        12.0808908697       13.2910264858       12.3629335649
  O        12.1754485878       13.2834902812        2.7697224897
  O        16.9750579235       13.3139067194       10.9129475630
  O        10.2414938106        9.8401892403        4.8224728646
  O        14.9153285113        9.8508797103       13.0524732955
  O        16.2052003551        9.8623999643        8.0672291266
  O        11.5689512146        9.9354147140       16.2190979751
  O        11.3291199114        9.8171189403        9.5218537099
  O        15.9105315705        9.8708597570       17.6822448721
  O        12.4873152527        8.6018870305        4.7294428565
  O        17.1548944806        8.5891604313       12.8825945152
  O        11.0466908547        8.6025284103        6.8493486502
  O        15.7119395493        8.5480262189       14.9966347430
  P        11.0374604286        8.5994086711        5.2944112977
  P        15.7143314009        8.5954125981       13.4586941694
 Ca        17.6715081556        8.6001604927        4.1331134779
 Ca        12.8675693079        8.6309121605       12.2827187216
  O        14.9753481992        8.5952628391        6.1951358016
  O        10.2340839428        8.5988397339       14.5212401250
  O        17.5288948797        8.5903177297        6.3959960941
  O        12.8251277779        8.5951433472       14.5729738778
  P        16.1756191676        8.6045394556        7.1686268499
  P        11.5029723791        8.5986092471       15.4461954082
 Ca        11.9885963167        8.5983072163        2.2572578425
 Ca        16.6009338154        8.5480779151       10.2499904960
  O        10.2940837334        8.6072380828       11.5137306026
  O        14.9939543639        8.5968844474       19.7249145982
  O         9.1273578177        8.6594543362        9.1981596860
  O        13.8288202251        8.5883734136       17.3704031324
  P        10.4849851086        8.5969760795        9.9831458370
  P        15.1265682724        8.5931333598       18.2439492235
 Ca        12.9597960001        8.5913484644        8.0640648707
 Ca        17.5876617566        8.6001491051       16.2903348879
  O        11.0948454130       12.0353282973        7.5719829063
  O        15.7752644260       12.0325938260       15.7239299318
  O        12.4873983235       12.0176479632        5.4510644605
  O        17.1974141432       12.0443350240       13.5119612420
  P        12.5288039761       12.0179723069        7.0066975529
  P        17.1890833642       12.0393703043       15.0726779913
 Ca        15.4212829375       12.0097471741        8.1033438275
 Ca        10.4957586561       12.0343036361       16.2776222172
  O        18.0463622145       12.0339167088        5.9765514553
  O        13.2876330324       12.0578768802       14.2756787989
  O        15.4806687398       12.0356301721        5.8227709259
  O        10.7376309196       12.0840783430       14.0451210215
  P        16.8241040319       12.0374170738        4.9878350908
  P        12.0918580983       12.0386618631       13.2921365019
 Ca        11.5884719794       12.0798335711       10.1965933135
 Ca        16.3899895742       12.0384674200       18.2189610451
  O        13.2609286325       12.0260440621        0.7507138241
  O        17.9889919270       12.0367646303        8.9511740128
  O        14.2974127860       12.0335353980        3.1344614342
  O         0.2088476755       12.0038755622       11.3191661857
  P        13.0344008521       12.0354952450        2.2149606928
  P        17.7332540527       12.0460938842       10.4937682094
 Ca        10.6217229138       12.0373606592        4.1106016690
 Ca        15.2497850224       11.9889266479       12.4154845721
 Ca        14.1060852838        6.7848698220        4.7787390502
 Ca         9.4559076886        6.8970801098       12.9849545950
 Ca         9.3947360594       10.3409110487        7.5280799347
 Ca        14.1199140209       10.2118883577       15.6816285867
 Ca         9.3826015952       13.7366537781        7.5197651421
 Ca        14.1210836074       13.8582924111       15.7001622786
 Ca        14.1166610642       10.4055869901        4.7746241885
 Ca         9.4644974002       10.3073173990       12.9793055373
  O        13.7165043686        7.6214814907        9.9342909288
  O         9.4537013778        7.7379086478       18.0958223943
  H        14.2050025073        7.5295252397       10.7987559418
  H         9.5503903714        7.7889009315       19.0558917845
  O        13.5385115239       11.4801192971       10.5003114711
  O         9.2009405109       11.1398931160       18.2288314205
  H        14.9974596568       10.4995703282       10.2270878104
  H         9.9642464910       11.1095761051       18.8365201021
  O        14.0735804698        5.5751495305       10.6604277157
  O         9.1940216417        6.0486798773       18.2493070174
  H        13.9806830177        6.4622224051        9.8782121266
  H         9.9680185018        6.0788184365       18.8329540983
  O        14.6402756112        9.5975579864       10.2099121438
  O         9.4708919669        9.4792290743       18.1051146068
  H        13.6854095675        9.7858967518       10.2489617997
  H         9.5082854819        9.4041564062       19.0762576616
  O         8.2433073228        6.7824744898       25.4801880873
  C         9.3202882790        7.3102052617       25.4559285741
  O        10.3731512317        7.7900897745       25.4037820309
     387
 i =       24, E =     -6921.5595393997
  O         0.8094841194        0.4798183644        4.8256685892
  O         5.4843048583        0.5056372621       12.9555129980
  O         6.7590832821        0.4745929683        8.0979570172
  O         2.1247681157        0.3857494212       16.2309004664
  O         1.6861454148        0.4357331934        9.4535020018
  O         6.4822472575        0.4291189615       17.6908608858
  O         3.9308868190        3.9104569359        7.5082832819
  O         8.5509695521        3.9004129919       15.4949398980
  O         7.3879633995        3.8403974373        4.1614960713
  O         2.6707375292        3.9418716014       12.3159891156
  O         2.7422169443        3.9051351913        2.7747531311
  O         7.6720818695        3.8702668348       11.0024909942
  O         3.9278534990        6.3987188195        7.4194437828
  O         8.5589058906        6.4202616937       15.5009600412
  O         7.3857696117        6.4754745949        4.1663663342
  O         2.5848283401        6.4972403630       12.4461895506
  O         2.7446867294        6.4113259916        2.7757897229
  O         7.5186011695        6.4095509393       10.8971803324
  O         0.8096488044        2.9680949840        4.8237206005
  O         5.4981313315        3.0188954734       13.2042224882
  O         6.7591469081        2.9768302053        8.0886250912
  O         2.1452509260        3.0645872139       16.2209204212
  O         1.9183290301        2.9350813921        9.5180453842
  O         6.4900527890        2.9983198000       17.6870606343
  O         3.0660098073        1.7300506212        4.7376004893
  O         7.7224794499        1.7256628718       12.9036614404
  O         1.6223647697        1.7348405783        6.8560127993
  O         6.3040253451        1.6433081283       15.0410885116
  P         1.6107525604        1.7240776558        5.2945441714
  P         6.2949646974        1.7308555781       13.4934592860
 Ca         8.2473041761        1.7125257539        4.1408690128
 Ca         3.5132417693        1.7468851899       12.2613751146
  O         5.5400085900        1.7335108149        6.1966820369
  O         0.8023304531        1.7333970989       14.5148047654
  O         8.1038334673        1.7350087520        6.3936086773
  O         3.3941564579        1.7066825101       14.5663430305
  P         6.7517449952        1.7188759890        7.1719795601
  P         2.0753319731        1.7269459491       15.4427481323
 Ca         2.5764531249        1.7160295652        2.2555571849
 Ca         7.1225686811        1.7374367309       10.2565014022
  O         0.8705624293        1.7457424946       11.5178554337
  O         5.5718599214        1.7217686806       19.7365950484
  O        18.5224482912        1.8139375871        9.2249724723
  O         4.3887708676        1.7147760910       17.3793587949
  P         1.0328545204        1.7313561451        9.9808919993
  P         5.6916602929        1.7172118104       18.2487925701
 Ca         3.5557341721        1.6909036001        8.0561954819
 Ca         8.1909046464        1.7225916339       16.3570285119
  O         1.6662198994        5.1507071358        7.5921225800
  O         6.3437796788        5.1641382481       15.7228227598
  O         3.0622774287        5.1077661753        5.4673857019
  O         7.7698967735        5.1907208035       13.5166089457
  P         3.1092081952        5.1379755089        7.0200687924
  P         7.7643734560        5.1650548951       15.0688281253
 Ca         6.1435128639        5.1631037834        7.9991544060
 Ca         1.0734982372        5.1524590669       16.2818464690
  O         8.6179146688        5.1543678686        5.9777068770
  O         3.8557291079        5.1590445303       14.2743385703
  O         6.0498334971        5.1425506655        5.7986600381
  O         1.3146159805        5.1081554503       14.0331590990
  P         7.4057801643        5.1558908301        4.9728695157
  P         2.6711045627        5.1691343663       13.2708666125
 Ca         2.0652242663        5.1403812982       10.1711753124
 Ca         7.0314484543        5.1567654014       18.1927175365
  O         3.8346771933        5.1455956585        0.7444475258
  O         8.5524213363        5.1387761485        8.9425336580
  O         4.8709063418        5.1549059927        3.1368632703
  O         9.7043417210        5.2242166374       11.2586422459
  P         3.6032174231        5.1560103410        2.2150815432
  P         8.3461678139        5.1616738964       10.4986832683
 Ca         1.2002950556        5.1542885626        4.0989016804
 Ca         5.7990255746        5.1249289333       12.3955620042
 Ca         4.6987766995       -0.1062595909        4.7883072800
 Ca         0.0072747987        0.0246905587       12.9864649036
 Ca        -0.0247516924        3.4433505898        7.5029185788
 Ca         4.7066069084        3.3153083037       15.6614346730
 Ca        -0.0330276366        6.8707749123        7.4986990732
 Ca         4.6911921673        6.9815147184       15.7070709776
 Ca         4.7108717907        3.5191136962        4.7515568945
 Ca         0.0215944785        3.4102637810       12.9883813653
  O         4.2309222024        0.4941400718        9.9732930360
  O        -0.2285395937        0.8457265005       18.2323445729
  H         4.8230362013        0.5276086401       10.7260598625
  H         0.2816154387        0.8483527784       19.0460318083
  O         5.3612086343        4.8371837423       10.0754937352
  O        -0.2127515199        4.2089814561       18.2397801932
  H         4.8602792469        4.0725492663        9.7672269500
  H         0.4961309846        4.2540480271       18.8785454061
  O         5.4557570564       12.1839259977       10.4074179818
  O        -0.1540285672       12.9803342427       18.2245568591
  H         4.2553732809       13.4088021347        9.5082488326
  H         0.5197728071       12.9250502952       18.9004253064
  O         5.0356898644        2.4808091070       10.7043465821
  O         0.2988625625        2.5566075898       18.1104032167
  H         4.1950210897        2.7190989391       10.3703625608
  H         0.0351515269        2.5524677491       19.0344970150
  O        10.2387736150        0.4735167768        4.8211752101
  O        14.9107484583        0.4984571224       12.9677515123
  O        16.2832720476        0.4153272584        8.0073114003
  O        11.5602845951        0.3774710686       16.2321044446
  O        11.3132768021        0.4866482375        9.5131629864
  O        15.8703181302        0.4194683744       17.6815601586
  O        13.3360177131        3.8367196755        7.3147917601
  O        17.9771663921        3.8971180994       15.4924183743
  O        16.8212736446        3.8396555207        4.1550439151
  O        12.1083229427        3.9560031638       12.3390448759
  O        12.1660140868        3.9044793311        2.7732148722
  O        16.9333375703        3.8971079050       10.9319592157
  O        13.3502538518        6.3841658911        7.4056104049
  O        17.9833486240        6.4245763266       15.4970569494
  O        16.8177930835        6.4792629922        4.1600986422
  O        12.0714711200        6.4646298571       12.4256535769
  O        12.1678399911        6.4130681999        2.7705733927
  O        16.9370522970        6.4207076516       10.8961310348
  O        10.2381298899        2.9627794615        4.8271599887
  O        14.9248870277        3.0035996120       13.1216873215
  O        16.1692325319        2.9231871018        8.1142844468
  O        11.5663025689        3.0677000798       16.2283369230
  O        11.3178793221        2.9793445987        9.5119855167
  O        15.9359176071        2.9912835862       17.6846865045
  O        12.4909119967        1.7129031758        4.7321839187
  O        17.1478797665        1.7396212180       12.8915632100
  O        11.0317752411        1.6980089984        6.8458164541
  O        15.7192625492        1.6706686499       15.0256975121
  P        11.0356305343        1.7168213644        5.2907082853
  P        15.7106123033        1.7165596300       13.4771842003
 Ca        17.6721770834        1.7191674700        4.1291366299
 Ca        12.7800846317        1.7412114096       12.3972602800
  O        14.9752857367        1.7046215195        6.1791366469
  O        10.2475441952        1.7260819220       14.5081150503
  O        17.5383104064        1.7727931636        6.3809602381
  O        12.8297022868        1.7207214745       14.5982956200
  P        16.1854873852        1.7119028927        7.1520215771
  P        11.4936452267        1.7218020848       15.4631524644
 Ca        12.0012559302        1.7212685701        2.2594998357
 Ca        16.4353322390        1.7191104402       10.2749591944
  O        10.2967104506        1.7324147959       11.5129206653
  O        14.9939504856        1.7441456857       19.7344677266
  O         9.1827840506        1.7294465602        9.1761683391
  O        13.8115626462        1.7491138960       17.3787665384
  P        10.5206655527        1.7353192630        9.9801291780
  P        15.1148468493        1.7234852777       18.2461622061
 Ca        12.8746966558        1.6996705669        8.0104964626
 Ca        17.6087900646        1.7205938928       16.3149784915
  O        11.0992907559        5.1328513213        7.5711217454
  O        15.7694247319        5.1592462160       15.7152441838
  O        12.4789135519        5.1621390546        5.4237748229
  O        17.2189135378        5.1871141596       13.5223468003
  P        12.5392145564        5.1317962596        6.9903808405
  P        17.1942579806        5.1624681014       15.0774431157
 Ca        15.5486629265        5.1688944015        7.9947522324
 Ca        10.4734391518        5.1608746059       16.2828149906
  O        18.0342667378        5.1600881206        5.9805885278
  O        13.2945512256        5.1523626442       14.2850234665
  O        15.4748422888        5.1468280718        5.7758884368
  O        10.7386575621        5.1146373285       14.0450662409
  P        16.8266066273        5.1566870170        4.9603427344
  P        12.0988928736        5.1771415198       13.2942173311
 Ca        11.7770950020        5.1958471718       10.1982442344
 Ca        16.4423821863        5.1548279490       18.2075962632
  O        13.2585334544        5.1484642236        0.7432693978
  O        17.9961849588        5.1482244233        8.9517859847
  O        14.2953036204        5.1571968803        3.1347070147
  O         0.1824729644        5.1773059936       11.3184992519
  P        13.0292327845        5.1570333073        2.2149284168
  P        17.7053226311        5.1511928119       10.4900323502
 Ca        10.6318546376        5.1597236238        4.1159456759
 Ca        15.3086016836        5.1641059557       12.4719454797
 Ca        14.1174123208       -0.0971684890        4.7700348537
 Ca         9.4262671906        0.0081180683       12.9583288044
 Ca         9.4126034668        3.4591701252        7.5235633938
 Ca        14.1148146328        3.3229081985       15.6840696233
 Ca         9.4161800367        6.8750155849        7.5532494100
 Ca        14.0921505002        6.9866477260       15.7031345495
 Ca        14.1012191637        3.5313025837        4.7832874645
 Ca         9.4062221492        3.4304044605       12.9555129728
  O        14.2599728557        0.8936284576        9.5855958362
  O         9.4741005719        0.8259184842       18.1219989498
  H        13.8277853469        0.5183003662       10.3659940830
  H         9.4975246349        0.9418546523       19.0858233592
  O        14.0695743196        4.5890760225        9.4152607838
  O         9.2229781176        4.2646751305       18.2245498752
  H        14.2998632572        3.5976420533       11.0894148982
  H         9.9258288005        4.2983781342       18.8880398661
  O        14.2877234450       12.7379253943       10.6434730380
  O         9.2307819093       12.9377228292       18.2243544580
  H        14.5255682754       13.7294478238        9.3939301669
  H         9.9588521647       12.9126604322       18.8424289365
  O        14.1554389698        2.6966439358       10.7900390134
  O         9.5223947941        2.6013817603       18.0857373203
  H        13.9393314310        2.9460698752        9.8820010746
  H         9.5503212866        2.5000147660       19.0519775583
  O         0.8098120500        7.3470002131        4.8227189623
  O         5.4826936069        7.3857334068       12.9317971500
  O         6.8418669897        7.3185839687        8.0138119790
  O         2.1338475335        7.2550895357       16.2281847084
  O         1.8836346646        7.3486241562        9.5132730370
  O         6.4749253642        7.3115883279       17.6927586088
  O         3.8926721688       10.7145329339        7.3018175192
  O         8.5556145792       10.7746581826       15.5028930784
  O         7.3879985916       10.7240276806        4.1644527903
  O         2.6650559846       10.7874041333       12.3824518873
  O         2.7411852763       10.7828468976        2.7739913551
  O         7.5459150284       10.7582421826       10.9121645056
  O         3.9174669190       13.2798417312        7.3686597867
  O         8.5559483982       13.3010855799       15.5046514829
  O         7.3879037873       13.3537744660        4.1667812012
  O         2.6739347137       13.2955628271       12.3628580641
  O         2.7431829222       13.2916257639        2.7697128506
  O         7.6319540479       13.3384859363       10.9998393308
  O         0.8081353665        9.8399824163        4.8273718121
  O         5.4934098012        9.8726567311       13.1613991508
  O         6.7414704213        9.8255209707        8.1095982554
  O         2.1361988856        9.9408319009       16.2251083330
  O         1.9151709743        9.8416070332        9.5161169633
  O         6.4869220152        9.8816756575       17.6815336108
  O         3.0650131495        8.5861253593        4.7437554205
  O         7.7238462050        8.5976252338       12.8913676683
  O         1.5970097600        8.5733663446        6.8533953475
  O         6.3029233642        8.5246608772       15.0355194440
  P         1.6065633268        8.5932858097        5.2908399480
  P         6.2997765496        8.5863982768       13.4885441405
 Ca         8.2481325922        8.6076034115        4.1401757907
 Ca         3.4406067203        8.6860982914       12.3819218491
  O         5.5409246990        8.5741842243        6.1925813793
  O         0.8161724816        8.5972590791       14.5110519798
  O         8.1111482402        8.6483440078        6.3824013942
  O         3.4033275657        8.5927966247       14.5905359320
  P         6.7625631820        8.6069800174        7.1515944879
  P         2.0722358489        8.5966701960       15.4577001139
 Ca         2.5767616925        8.6032778752        2.2512879714
 Ca         7.0860591063        8.6001645416       10.2580600953
  O         0.8612911381        8.6097696978       11.5121187305
  O         5.5718773057        8.6218842334       19.7355833911
  O        18.6086456402        8.6264512467        9.1858132589
  O         4.3888540312        8.6035940486       17.3778646790
  P         1.1030656983        8.6058099764        9.9848798207
  P         5.6925538886        8.6011424467       18.2490232497
 Ca         3.5168321402        8.5656445069        8.0055500519
 Ca         8.1983932235        8.5934322054       16.3634251465
  O         1.6670977686       12.0147776881        7.5713741730
  O         6.3464070002       12.0319735057       15.7137699545
  O         3.0481400656       12.0560208864        5.4180449924
  O         7.7994054443       12.0437405454       13.5228142065
  P         3.1012715380       12.0125490837        6.9776061640
  P         7.7763571393       12.0391849674       15.0770248018
 Ca         5.9415758676       12.0124819661        8.2243899933
 Ca         1.0814447380       12.0418965279       16.2775728805
  O         8.6340242949       12.0376950587        5.9682940569
  O         3.8586532678       12.0480907029       14.2838169695
  O         6.0570928153       12.0362133597        5.8238757971
  O         1.3155567843       12.0593626310       14.0375712869
  P         7.3971533178       12.0376573939        4.9889885190
  P         2.6733410763       12.0534867363       13.2865135615
 Ca         2.1639583460       12.1023974054       10.2147986421
 Ca         7.0304327576       12.0364181587       18.1953118749
  O         3.8335539518       12.0252876529        0.7429524875
  O         8.5599956426       12.0655176367        8.9583402481
  O         4.8712824586       12.0341788712        3.1340975535
  O         9.6507224607       11.9913831717       11.3033061716
  P         3.6049279721       12.0354964424        2.2146655059
  P         8.3061895496       12.0357535800       10.5062392935
 Ca         1.2092723379       12.0411581691        4.1101438416
 Ca         5.8284691327       12.0396904086       12.5500392275
 Ca         4.7028185732        6.7811507802        4.7639902293
 Ca         0.0489821456        6.8936112102       13.0040891317
 Ca        -0.0245590734       10.3446538779        7.5011348972
 Ca         4.7042065477       10.1977080006       15.6920123289
 Ca        -0.0230987499       13.7563994990        7.5350461117
 Ca         4.6869787022       13.8739152606       15.7027820220
 Ca         4.6955769680       10.4238060360        4.7943640557
 Ca         0.0080415914       10.3075424898       13.0016989249
  O         4.9412858122        7.6358641999        9.7315010032
  O         0.0852554118        7.6889665321       18.1396105803
  H         4.4306030312        7.4622728917       10.5165906127
  H         0.0954575731        7.7907418778       19.0834318761
  O         4.2248523876       11.7238327762        9.5605216732
  O        -0.2121731924       11.1010439805       18.2404353711
  H         5.2416664160       10.6179099409       10.8214055113
  H         0.4742856615       11.1687694746       18.9019536096
  O         4.1584772637        5.6088630329       10.6811361202
  O        -0.2155930101        6.0829980967       18.2411889625
  H         5.0373767067        6.7050700359        9.4652351791
  H         0.5157126694        6.0635523372       18.8449388072
  O         4.8974460560        9.6798964993       10.7023600952
  O         0.0737989899        9.5161003850       18.0945405727
  H         4.2838688383        9.8323063110        9.9965018952
  H         0.1981303641        9.4522383200       19.0470639165
  O        10.2358657803        7.3554886672        4.8218681410
  O        14.9107585702        7.3693298514       12.9128788816
  O        16.1994918165        7.3636374000        8.1025205793
  O        11.5678998442        7.2553697498       16.2236274461
  O        11.1273241452        7.2952062918        9.4741454061
  O        15.9095717657        7.3105700112       17.6853945028
  O        13.3539800537       10.7737280290        7.4379901697
  O        17.9793486262       10.7778900395       15.4897544615
  O        16.8097916908       10.7223622792        4.1662119784
  O        12.0050383640       10.7248118205       12.4834693581
  O        12.1659541756       10.7833110626        2.7743954683
  O        16.9342553974       10.7790976541       10.8904359063
  O        13.3526931020       13.2605690724        7.4359550145
  O        17.9797548911       13.2972247370       15.4938306625
  O        16.8102686934       13.3527887235        4.1677466200
  O        12.0761888776       13.2924377654       12.3780652695
  O        12.1687756911       13.2907267365        2.7728310581
  O        16.9764839330       13.3182500222       10.9066986331
  O        10.2392616520        9.8438205336        4.8195805115
  O        14.9115721115        9.8492620877       13.0560619651
  O        16.2145468124        9.8673757876        8.0561286656
  O        11.5700463017        9.9400973553       16.2233129867
  O        11.3360210779        9.8075189882        9.5214430161
  O        15.9113271851        9.8752118080       17.6803854006
  O        12.4913707019        8.6025914642        4.7312860789
  O        17.1543269146        8.5876927727       12.8861446275
  O        11.0421064810        8.6042478776        6.8486869500
  O        15.7132836236        8.5399962920       15.0040673023
  P        11.0352201228        8.5997698512        5.2927312326
  P        15.7132235219        8.5907066303       13.4556609738
 Ca        17.6686702970        8.6007772664        4.1288950101
 Ca        12.8520870831        8.6385000077       12.2853143151
  O        14.9772078230        8.5932294973        6.1894459696
  O        10.2285932489        8.5978266733       14.5210423234
  O        17.5352514995        8.5852030171        6.3904752091
  O        12.8269986506        8.5924998266       14.5700767406
  P        16.1815919419        8.6045174217        7.1655436123
  P        11.4984499829        8.5983335915       15.4443064112
 Ca        12.0015019599        8.5982356566        2.2621823323
 Ca        16.6166813807        8.5366323145       10.2391195266
  O        10.2895354883        8.6088235307       11.5147131035
  O        14.9932344895        8.5961461846       19.7337570099
  O         9.1162338063        8.6701975965        9.1948129282
  O        13.8132617951        8.5854343241       17.3765734350
  P        10.4742981411        8.5970043392        9.9764804094
  P        15.1163860555        8.5923533308       18.2456164523
 Ca        12.9604085286        8.5895791376        8.0499025237
 Ca        17.6015684775        8.6011531337       16.3302762272
  O        11.0906132093       12.0336751315        7.5735826712
  O        15.7695109545       12.0297521473       15.7222474737
  O        12.4852609249       12.0121732098        5.4472095378
  O        17.1977205261       12.0468060997       13.5125770302
  P        12.5302203411       12.0151158304        7.0067278526
  P        17.1850795106       12.0401546546       15.0654524417
 Ca        15.4128385795       11.9986804953        8.1046433742
 Ca        10.4858235843       12.0338722151       16.2708167651
  O        18.0516077453       12.0327379451        5.9755715582
  O        13.2854738541       12.0639760240       14.2857311806
  O        15.4792719933       12.0340500453        5.8186446775
  O        10.7253152754       12.0919830367       14.0595191005
  P        16.8273718062       12.0375390285        4.9836673567
  P        12.0837115575       12.0432612611       13.2977232174
 Ca        11.5618201659       12.0905834053       10.1830804129
 Ca        16.4210646282       12.0388655128       18.2015929760
  O        13.2595569475       12.0219177148        0.7447150452
  O        17.9959481807       12.0358739152        8.9537645738
  O        14.2948891843       12.0321297595        3.1382602811
  O         0.2054712235       11.9980715324       11.3302900996
  P        13.0278503453       12.0343262832        2.2160903572
  P        17.7316481424       12.0478640508       10.4929177162
 Ca        10.6185026205       12.0369754642        4.1138285417
 Ca        15.2314141333       11.9871596229       12.4150836080
 Ca        14.1038591360        6.7784008600        4.7775523728
 Ca         9.4583952699        6.8999291510       12.9739619558
 Ca         9.3909146304       10.3464875816        7.5273172890
 Ca        14.1098434085       10.2060844403       15.6728941213
 Ca         9.3764642927       13.7332898098        7.5172937684
 Ca        14.1109927456       13.8621463984       15.6968826337
 Ca        14.1184916409       10.4098937271        4.7718630519
 Ca         9.4682239578       10.3076453508       12.9681853887
  O        13.7207379148        7.5685231679        9.9650040450
  O         9.4854045302        7.7373527577       18.1044491138
  H        14.1990891494        7.5960261942       10.7958220660
  H         9.5270867033        7.8253854483       19.0677823629
  O        13.5099925718       11.5018264338       10.4970450923
  O         9.2118414861       11.1547925447       18.2582519698
  H        15.0467450758       10.4962417734       10.2778652159
  H         9.9666258647       11.1577884421       18.8437395512
  O        14.0853679539        5.4976482148       10.6413127416
  O         9.1988770505        6.0430040805       18.2780235873
  H        13.9134046446        6.5121948413        9.9219425994
  H         9.9765709048        6.0270772139       18.8442021644
  O        14.6607564960        9.5910185148       10.1726118258
  O         9.5095438971        9.4774131583       18.1184016441
  H        13.7246010833        9.7502472655       10.2549904426
  H         9.4781040364        9.3729055116       19.0786533551
  O         8.3075744642        6.8220762546       25.4823502772
  C         9.3119049489        7.2995298929       25.4545074439
  O        10.3529011455        7.7654943691       25.4039927709
     387
 i =       25, E =     -6921.6119589616
  O         0.8082154028        0.4778904212        4.8261103162
  O         5.4839405619        0.5151262486       12.9464511673
  O         6.7544091335        0.4741686903        8.1009760164
  O         2.1214434429        0.3855100265       16.2365183688
  O         1.6712463654        0.4323863630        9.4429262172
  O         6.4861254590        0.4240492310       17.6923192771
  O         3.9315882140        3.9069299852        7.5170711072
  O         8.5515064808        3.9016531149       15.4999170648
  O         7.3891117030        3.8401286894        4.1563711924
  O         2.6670303813        3.9457605176       12.3182618293
  O         2.7398250595        3.8948491866        2.7760551167
  O         7.6830796056        3.8675202725       11.0038704522
  O         3.9303518114        6.3987499997        7.4175050853
  O         8.5615209178        6.4200116130       15.5089427026
  O         7.3860907052        6.4747798024        4.1624762240
  O         2.5759917093        6.4996740633       12.4526752802
  O         2.7427667146        6.4210472059        2.7765552428
  O         7.5221844541        6.4096232904       10.8992024703
  O         0.8074162390        2.9717439454        4.8233339912
  O         5.4981262164        3.0254790680       13.2336520145
  O         6.7566708518        2.9760756195        8.0931268502
  O         2.1473567064        3.0642028077       16.2234068825
  O         1.9246190435        2.9247656532        9.5162861456
  O         6.4964787001        3.0021130447       17.6870950345
  O         3.0671181972        1.7322901636        4.7400395717
  O         7.7205424007        1.7300811120       12.9081447606
  O         1.6210175691        1.7385678072        6.8576677169
  O         6.3113322494        1.6308239751       15.0575056407
  P         1.6089813425        1.7256772168        5.2963326777
  P         6.2962838555        1.7319286191       13.4969280758
 Ca         8.2450878669        1.7112017277        4.1347650569
 Ca         3.5062192139        1.7535922225       12.2751643501
  O         5.5403585372        1.7364247491        6.1953601161
  O         0.7948244138        1.7348185856       14.5083864445
  O         8.1056602727        1.7381337105        6.3935590038
  O         3.3905798889        1.7011424760       14.5624303668
  P         6.7526872251        1.7192106392        7.1746570521
  P         2.0684256214        1.7271756521       15.4409996579
 Ca         2.5831516271        1.7153351522        2.2560035999
 Ca         7.1186790399        1.7421014477       10.2546180211
  O         0.8680960874        1.7475935132       11.5207494145
  O         5.5701333198        1.7220631391       19.7447564947
  O        18.5123163101        1.8299632318        9.2293662745
  O         4.3805981797        1.7131521479       17.3860198560
  P         1.0243815238        1.7303638625        9.9743970793
  P         5.6850722991        1.7168981985       18.2500206357
 Ca         3.5596193444        1.6911062259        8.0548569037
 Ca         8.1950183532        1.7221904821       16.3720418129
  O         1.6642541773        5.1492313473        7.6001008303
  O         6.3404753165        5.1659715758       15.7225230312
  O         3.0632305166        5.1078144904        5.4664557988
  O         7.7646878739        5.1961857296       13.5206142155
  P         3.1132248714        5.1370370590        7.0256885345
  P         7.7634547017        5.1674190787       15.0670563828
 Ca         6.1675862755        5.1621975110        7.9682997024
 Ca         1.0623608138        5.1488499578       16.2873770622
  O         8.6215192017        5.1534417816        5.9820462419
  O         3.8570745945        5.1614914880       14.2763325119
  O         6.0469347893        5.1381837935        5.7919311845
  O         1.3045993038        5.1109023804       14.0360192576
  P         7.4077249949        5.1553602137        4.9719009286
  P         2.6627488266        5.1736993294       13.2691623959
 Ca         2.0616339294        5.1360784433       10.1604400513
 Ca         7.0464291987        5.1568410365       18.1760027493
  O         3.8342838499        5.1424312516        0.7428770146
  O         8.5529223357        5.1304778383        8.9429659557
  O         4.8730999131        5.1540895877        3.1338643305
  O         9.7170363393        5.2287877632       11.2592479563
  P         3.5990494811        5.1551385964        2.2166549527
  P         8.3496748550        5.1638397109       10.4993322552
 Ca         1.1970300384        5.1534719618        4.1001537399
 Ca         5.7832614737        5.1184300822       12.3652484093
 Ca         4.7004100035       -0.1023202644        4.7887553997
 Ca         0.0041256893        0.0301009105       12.9814364888
 Ca        -0.0267163558        3.4441778884        7.4953021722
 Ca         4.7052993643        3.3201529663       15.6509554269
 Ca        -0.0329785598        6.8701046935        7.4919793937
 Ca         4.6855496009        6.9721327161       15.7052672640
 Ca         4.7128446104        3.5127755811        4.7458037054
 Ca         0.0197533498        3.4097358636       12.9864780107
  O         4.2089942096        0.4764823662        9.9774883062
  O        -0.2299558932        0.8238229651       18.2491684586
  H         4.8215691536        0.5272282652       10.6960379968
  H         0.2848875151        0.8743968631       19.0495813052
  O         5.3289900718        4.8783665832       10.0357139860
  O        -0.2104300015        4.2208113490       18.2579298453
  H         4.8845767174        4.0427791157        9.7860067885
  H         0.4959608153        4.2851896544       18.8835012624
  O         5.4292645163       12.1439466936       10.3710469778
  O        -0.1539478236       12.9844568020       18.2385793897
  H         4.2282924622       13.3808756186        9.4992989117
  H         0.5221462053       12.8911956435       18.9049940291
  O         5.0265757629        2.5048546084       10.7192091320
  O         0.3384972274        2.5782366641       18.1312511854
  H         4.1812180880        2.7053905213       10.3655458632
  H         0.0044293694        2.5393220131       19.0237247904
  O        10.2366222883        0.4689871767        4.8182879540
  O        14.9107074688        0.5029280979       12.9603260833
  O        16.2887496415        0.4032647323        8.0031358991
  O        11.5558298232        0.3779265901       16.2384318985
  O        11.3154447226        0.4913409098        9.5103634791
  O        15.8635190392        0.4101090799       17.6823613683
  O        13.3360627912        3.8220259544        7.2828307040
  O        17.9786896874        3.8985080820       15.4990816017
  O        16.8235222383        3.8407428027        4.1477329708
  O        12.1065418585        3.9604370915       12.3446846393
  O        12.1636114088        3.8939610447        2.7744145697
  O        16.9280630007        3.8970305511       10.9306428163
  O        13.3495399152        6.3886857764        7.3921548769
  O        17.9860440578        6.4238853490       15.5065347938
  O        16.8187915905        6.4782816193        4.1546048749
  O        12.0721104060        6.4708423468       12.4321519124
  O        12.1654855532        6.4226330849        2.7708987655
  O        16.9343074456        6.4209781989       10.8975756663
  O        10.2373171669        2.9661098467        4.8261516182
  O        14.9230187636        3.0088089485       13.1431019842
  O        16.1685930058        2.9156553746        8.1154551647
  O        11.5623184447        3.0679093584       16.2353187512
  O        11.3200716668        2.9803412318        9.5101895031
  O        15.9460961960        2.9939545924       17.6842532494
  O        12.4913461274        1.7099772844        4.7349478500
  O        17.1469320187        1.7435399595       12.8928404419
  O        11.0148414220        1.6930128449        6.8422056358
  O        15.7249763973        1.6650321202       15.0387843019
  P        11.0310851489        1.7152406223        5.2877257723
  P        15.7102733550        1.7186196108       13.4739067725
 Ca        17.6700028123        1.7186035032        4.1238608527
 Ca        12.7716714773        1.7354551182       12.3983904840
  O        14.9789368349        1.6982797613        6.1709686339
  O        10.2445537079        1.7285016476       14.5001743698
  O        17.5452543007        1.7730798621        6.3761347651
  O        12.8283224045        1.7204040211       14.5988859993
  P        16.1903567924        1.7055620429        7.1512592825
  P        11.4895039223        1.7221289169       15.4617277667
 Ca        12.0074698840        1.7213236112        2.2595952288
 Ca        16.4328438596        1.7231323249       10.2694711487
  O        10.2942228440        1.7363333812       11.5129430180
  O        14.9934638862        1.7476658694       19.7425572628
  O         9.1802849780        1.7331023037        9.1760085170
  O        13.8022689746        1.7540796502       17.3850060244
  P        10.5222439672        1.7396935169        9.9723503576
  P        15.1078569816        1.7266917631       18.2467574970
 Ca        12.8694354777        1.7099174952        7.9870930170
 Ca        17.6204572733        1.7250338156       16.3388056081
  O        11.0997203102        5.1275938235        7.5709477054
  O        15.7668435270        5.1606194957       15.7135159259
  O        12.4775661280        5.1659013275        5.4130203022
  O        17.2188503009        5.1919738948       13.5271616651
  P        12.5405375806        5.1276322280        6.9820533660
  P        17.1957687444        5.1635075261       15.0773690779
 Ca        15.5590596199        5.1726298133        7.9942072195
 Ca        10.4698967118        5.1608463810       16.2781863631
  O        18.0369383521        5.1607858220        5.9835816019
  O        13.2950863734        5.1535109995       14.2918298371
  O        15.4715473452        5.1447386968        5.7692708310
  O        10.7300079016        5.1180605342       14.0472961371
  P        16.8270678359        5.1562472007        4.9591649720
  P        12.0947551319        5.1778862039       13.2926336159
 Ca        11.7972851819        5.1949453879       10.1946637145
 Ca        16.4688314044        5.1513961836       18.1934681325
  O        13.2578523402        5.1456456194        0.7416156287
  O        17.9994400809        5.1441576874        8.9547293236
  O        14.2976393484        5.1568495776        3.1318190450
  O         0.1753838775        5.1799111265       11.3259181461
  P        13.0253280595        5.1567025613        2.2163850371
  P        17.7017660532        5.1493491119       10.4915996117
 Ca        10.6280924161        5.1599911363        4.1176610429
 Ca        15.2991561432        5.1730545054       12.4675662204
 Ca        14.1193546751       -0.0948001135        4.7691071281
 Ca         9.4230381340        0.0089492284       12.9503800088
 Ca         9.4159474541        3.4600938782        7.5209495083
 Ca        14.1137937200        3.3287896898       15.6777092953
 Ca         9.4190324123        6.8757141934        7.5555867896
 Ca        14.0844197258        6.9772885355       15.7026867064
 Ca        14.0993052133        3.5265082732        4.7845238108
 Ca         9.4015904838        3.4325090158       12.9456814183
  O        14.2670016377        0.9224118672        9.5522952076
  O         9.4957997231        0.8416786726       18.1292466306
  H        13.8348261927        0.5157146020       10.3511272343
  H         9.4737771145        0.9512698113       19.0844037908
  O        14.0273874092        4.5879877026        9.4004163390
  O         9.2297564426        4.2747687727       18.2471859795
  H        14.2923729983        3.5918827958       11.1131219733
  H         9.9240198767        4.3256860624       18.8910744647
  O        14.2958239640       12.7426972104       10.6078066517
  O         9.2330024558       12.9155409956       18.2463474705
  H        14.5268331727       13.7454655406        9.3788418524
  H         9.9642780720       12.8814011801       18.8493023746
  O        14.1595020779        2.6871022472       10.8212196169
  O         9.5515612203        2.5997391185       18.1014801922
  H        13.9410207267        2.9473462109        9.8975525621
  H         9.5307230939        2.4884048656       19.0497665058
  O         0.8068401664        7.3428235602        4.8213380499
  O         5.4831430433        7.3937209225       12.9292908131
  O         6.8519324282        7.3161409011        8.0104520122
  O         2.1312916027        7.2544347740       16.2335351354
  O         1.8868777960        7.3493942292        9.5125596871
  O         6.4760673064        7.3069775552       17.6937066978
  O         3.8887538038       10.7054034492        7.2750475398
  O         8.5567595432       10.7754159895       15.5088327040
  O         7.3878442264       10.7257184958        4.1608791552
  O         2.6663009751       10.7933460657       12.3850385566
  O         2.7386707035       10.7724818963        2.7751981462
  O         7.5534451648       10.7544943418       10.9170569190
  O         3.9168208180       13.2851446095        7.3527732621
  O         8.5568670082       13.2996860187       15.5119489930
  O         7.3877370953       13.3526849947        4.1639595983
  O         2.6758319651       13.2985272769       12.3698939547
  O         2.7406979949       13.3011579368        2.7698195680
  O         7.6357995076       13.3412471429       11.0005474355
  O         0.8070806216        9.8417947312        4.8276366753
  O         5.4942029488        9.8764969104       13.1801718088
  O         6.7377147747        9.8226005164        8.1111016692
  O         2.1339289500        9.9422325329       16.2310268082
  O         1.9235230492        9.8439998826        9.5168238928
  O         6.4926418500        9.8850136618       17.6809406440
  O         3.0653353332        8.5820595612        4.7464109861
  O         7.7228416375        8.5991447648       12.8934767708
  O         1.5869046217        8.5692612841        6.8544304865
  O         6.3090513568        8.5154353976       15.0477914603
  P         1.6034929610        8.5906859825        5.2922664853
  P         6.2993269975        8.5861507686       13.4828910161
 Ca         8.2463547679        8.6090983927        4.1340690760
 Ca         3.4413139351        8.6845418454       12.3864855020
  O         5.5420196311        8.5697990976        6.1881751543
  O         0.8114521613        8.5986868967       14.5047437802
  O         8.1172923114        8.6512759640        6.3788079133
  O         3.4009616226        8.5919788423       14.5911905976
  P         6.7656555933        8.6052775781        7.1519649714
  P         2.0679040975        8.5954604143       15.4573548994
 Ca         2.5833335879        8.6038988677        2.2512618160
 Ca         7.0867023502        8.6032194499       10.2561730794
  O         0.8585324073        8.6142231626       11.5125257777
  O         5.5702065127        8.6268492621       19.7445067277
  O        18.6124136062        8.6297938634        9.1770562525
  O         4.3794318457        8.6051275744       17.3855223158
  P         1.1097636641        8.6069724008        9.9774106574
  P         5.6851144699        8.6030937706       18.2506002932
 Ca         3.5175072985        8.5710272821        7.9945175098
 Ca         8.2016472034        8.5927377459       16.3759020707
  O         1.6664694991       12.0100720571        7.5721250350
  O         6.3431510715       12.0306979638       15.7107399644
  O         3.0468959765       12.0616224986        5.4048269934
  O         7.7937316008       12.0444861578       13.5271694330
  P         3.1010953594       12.0110564881        6.9662166312
  P         7.7766783975       12.0387605853       15.0770594458
 Ca         5.9466092380       12.0075257456        8.2168145095
 Ca         1.0707602350       12.0421224351       16.2788628338
  O         8.6398499149       12.0379151387        5.9713466123
  O         3.8604088261       12.0525165078       14.2907424811
  O         6.0562908168       12.0356289504        5.8260703006
  O         1.3051518979       12.0645095311       14.0385071434
  P         7.3978125838       12.0372995230        4.9918408971
  P         2.6680013188       12.0559713793       13.2864493076
 Ca         2.1652638064       12.1003438511       10.2170132761
 Ca         7.0470741961       12.0358557624       18.1788058864
  O         3.8330023644       12.0217496366        0.7414082805
  O         8.5603373918       12.0722321952        8.9633137732
  O         4.8733833536       12.0333232879        3.1321658654
  O         9.6550988435       11.9905407706       11.3177279281
  P         3.6012590015       12.0347350835        2.2165667163
  P         8.3090676265       12.0341560570       10.5102630485
 Ca         1.2033859862       12.0415910682        4.1098483600
 Ca         5.8198954331       12.0519902600       12.5581213251
 Ca         4.7030801496        6.7838501726        4.7613649685
 Ca         0.0526061937        6.8940469190       13.0041920105
 Ca        -0.0259812649       10.3458664757        7.4947118746
 Ca         4.7059328424       10.2016081155       15.6852316550
 Ca        -0.0266104643       13.7583112395        7.5345208019
 Ca         4.6821426417       13.8665902424       15.7019782549
 Ca         4.6963478286       10.4192587195        4.7957402991
 Ca         0.0058912505       10.3043551167       13.0003293347
  O         4.9620570255        7.6399967593        9.7035070023
  O         0.1148462822        7.6738429296       18.1515807492
  H         4.4382086360        7.4562540787       10.5103246033
  H         0.0670922290        7.8095995028       19.0774600987
  O         4.2507277576       11.7454144407        9.5575008161
  O        -0.2131122916       11.0968093452       18.2613774723
  H         5.2538753604       10.6249891337       10.8325469830
  H         0.4723286532       11.2036121101       18.9040450745
  O         4.1858910010        5.6024712341       10.7143156756
  O        -0.2161537991        6.0603923760       18.2605198304
  H         5.0280739648        6.7107415680        9.4452275212
  H         0.5168216301        6.0248583729       18.8475732926
  O         4.9003555533        9.6902406268       10.7366946287
  O         0.1049506562        9.5393347653       18.1039146351
  H         4.2789930138        9.8476087709        9.9947569766
  H         0.1829795070        9.4262127168       19.0492953866
  O        10.2340220909        7.3523859529        4.8207774815
  O        14.9083927683        7.3740331255       12.9034703322
  O        16.1983734391        7.3661776211        8.1053907357
  O        11.5655888056        7.2555416440       16.2287178477
  O        11.1151297215        7.2869054021        9.4678864334
  O        15.9145619111        7.3059435414       17.6850736572
  O        13.3544399242       10.7692369390        7.4360479389
  O        17.9823461324       10.7777192787       15.4975508482
  O        16.8103827170       10.7230095505        4.1624121675
  O        11.9895824338       10.7175684414       12.4975887133
  O        12.1632843969       10.7732020995        2.7758980615
  O        16.9269832148       10.7795661879       10.8929768473
  O        13.3542949976       13.2578916654        7.4348257012
  O        17.9823478570       13.2964411657       15.5028930578
  O        16.8107232518       13.3516087376        4.1640667788
  O        12.0757220796       13.2934897978       12.3860182574
  O        12.1665673006       13.3004442854        2.7737290472
  O        16.9778006744       13.3195310631       10.9038775724
  O        10.2383464501        9.8473889498        4.8175202657
  O        14.9099746824        9.8485990333       13.0584067051
  O        16.2222997537        9.8715159242        8.0448309124
  O        11.5689609912        9.9391864517       16.2276816525
  O        11.3429041908        9.7983319764        9.5192350817
  O        15.9149622877        9.8801255665       17.6803157510
  O        12.4924011265        8.6031926541        4.7338937847
  O        17.1553355903        8.5867862121       12.8860766540
  O        11.0370476397        8.6062386555        6.8501905754
  O        15.7153280199        8.5373788436       15.0083798075
  P        11.0322852213        8.6001633472        5.2921857768
  P        15.7154201966        8.5883242675       13.4483685374
 Ca        17.6659793394        8.6013205392        4.1226071144
 Ca        12.8365192292        8.6431864299       12.2954638085
  O        14.9785678026        8.5909291342        6.1859494826
  O        10.2233033488        8.5968431092       14.5143293338
  O        17.5394832782        8.5792937791        6.3875972469
  O        12.8257540575        8.5895175297       14.5671424378
  P        16.1864401383        8.6046851487        7.1619896983
  P        11.4920762552        8.5977959855       15.4426265943
 Ca        12.0080435865        8.5982312577        2.2628963152
 Ca        16.6240733436        8.5300234641       10.2338197583
  O        10.2862770183        8.6101222165       11.5147878810
  O        14.9926428314        8.5956396552       19.7411687011
  O         9.1091080062        8.6771316588        9.1941424449
  O        13.8042518823        8.5831515159       17.3828147915
  P        10.4653726437        8.5945433227        9.9688933855
  P        15.1104955978        8.5919665460       18.2459819859
 Ca        12.9680520781        8.5842501869        8.0532860151
 Ca        17.6110762849        8.5991579115       16.3568911036
  O        11.0867717667       12.0316619060        7.5756117768
  O        15.7665223169       12.0265583899       15.7207703463
  O        12.4851635908       12.0082741850        5.4428653611
  O        17.1967089076       12.0493010202       13.5178224715
  P        12.5307190430       12.0138250393        7.0059103100
  P        17.1865959983       12.0406230894       15.0673160404
 Ca        15.4036552814       11.9915957460        8.1108632890
 Ca        10.4829761234       12.0338724415       16.2676071848
  O        18.0579747186       12.0316979847        5.9778980120
  O        13.2866973299       12.0677358290       14.2916473129
  O        15.4754827258       12.0320443604        5.8176340375
  O        10.7124014435       12.0942072306       14.0689574289
  P        16.8291589046       12.0373592648        4.9859789856
  P        12.0732791792       12.0448333735       13.3029474100
 Ca        11.5416931663       12.0977078590       10.1711153464
 Ca        16.4472137587       12.0389606346       18.1855984803
  O        13.2591837772       12.0179859054        0.7434019878
  O        18.0005760088       12.0340351197        8.9563358364
  O        14.2969950768       12.0308478875        3.1355253505
  O         0.2054357193       11.9963694032       11.3304294465
  P        13.0234862909       12.0329543490        2.2178453617
  P        17.7310218620       12.0478303894       10.4909546225
 Ca        10.6135775333       12.0364182584        4.1160410022
 Ca        15.2132392387       11.9936599871       12.4111937458
 Ca        14.1021947321        6.7810998057        4.7764026395
 Ca         9.4592042741        6.9019516265       12.9689321096
 Ca         9.3880087218       10.3505564357        7.5239314026
 Ca        14.1040667829       10.2098852654       15.6661010211
 Ca         9.3723682190       13.7319629504        7.5135139005
 Ca        14.1049525647       13.8570794648       15.6950675319
 Ca        14.1204728764       10.4053621426        4.7694554691
 Ca         9.4694019112       10.3072029778       12.9643155716
  O        13.7250236024        7.5351107318        9.9820058910
  O         9.5149668612        7.7392139622       18.1183438905
  H        14.2029374417        7.6306966755       10.7817357944
  H         9.5066651149        7.8333630822       19.0710376683
  O        13.5155851638       11.5228339250       10.4992347839
  O         9.2132098273       11.1784910852       18.2817237584
  H        15.0527579172       10.4873893652       10.3047100035
  H         9.9698340943       11.1878486609       18.8489679422
  O        14.0958716873        5.4319653206       10.6322282934
  O         9.2000639073        6.0301359823       18.2999818612
  H        13.8716632634        6.5515472548        9.9572017862
  H         9.9797930857        6.0017081387       18.8490421769
  O        14.6965743695        9.5861636900       10.1510521885
  O         9.5394161488        9.4637777373       18.1274914255
  H        13.7491028047        9.7382746689       10.2530159291
  H         9.4526080069        9.3659616286       19.0769692890
  O         8.2582193353        6.8061099737       25.4901116227
  C         9.3367826028        7.3044369588       25.4497177993
  O        10.3954896957        7.7807496934       25.4041008541
     387
 i =       26, E =     -6921.6588997247
  O         0.8069399006        0.4785805853        4.8265028849
  O         5.4849475491        0.5286931852       12.9399278633
  O         6.7520595357        0.4756079854        8.1017638497
  O         2.1199545915        0.3836727555       16.2359520397
  O         1.6502259705        0.4298236333        9.4294022942
  O         6.4853022799        0.4204734073       17.6943194679
  O         3.9305901083        3.9061988416        7.5273491259
  O         8.5505783962        3.9043291070       15.5009951176
  O         7.3908918824        3.8384411205        4.1536676013
  O         2.6626150863        3.9515729381       12.3206679383
  O         2.7384559756        3.8917939056        2.7774796457
  O         7.6952764904        3.8646868588       11.0046435427
  O         3.9316726239        6.3968805829        7.4150788255
  O         8.5629393366        6.4181664806       15.5143523159
  O         7.3867535944        6.4753747718        4.1619586891
  O         2.5694841335        6.4995788098       12.4591461879
  O         2.7421715629        6.4234963808        2.7773154123
  O         7.5279574594        6.4083231701       10.9007589240
  O         0.8046125644        2.9728927349        4.8228939492
  O         5.4990425295        3.0323578451       13.2647777139
  O         6.7556586141        2.9729466484        8.0970673555
  O         2.1515675376        3.0656491078       16.2194061957
  O         1.9313849188        2.9124686230        9.5140243895
  O         6.4981601459        3.0025707198       17.6879144319
  O         3.0676090632        1.7350614766        4.7427304809
  O         7.7184347144        1.7355799285       12.9127787652
  O         1.6193693991        1.7428326623        6.8576615094
  O         6.3160592677        1.6143525334       15.0699123467
  P         1.6079920500        1.7271502357        5.2983779022
  P         6.2964890490        1.7338967408       13.5027281439
 Ca         8.2437394861        1.7098312091        4.1287363660
 Ca         3.4966972342        1.7594234998       12.2920375250
  O         5.5429183362        1.7397349504        6.1935994865
  O         0.7917881049        1.7366617160       14.5066090703
  O         8.1054286461        1.7413451167        6.3952114659
  O         3.3844268627        1.6946465419       14.5617387669
  P         6.7524464580        1.7191822512        7.1761050712
  P         2.0627587385        1.7270961127       15.4417071176
 Ca         2.5939866131        1.7145521811        2.2577059848
 Ca         7.1156566606        1.7467998783       10.2535262716
  O         0.8659496033        1.7486259299       11.5202501516
  O         5.5686965221        1.7225933876       19.7504242072
  O        18.5056203502        1.8480193543        9.2347774371
  O         4.3778999871        1.7112143808       17.3866583089
  P         1.0186522957        1.7275734973        9.9699862095
  P         5.6811760255        1.7165702392       18.2564805497
 Ca         3.5627533133        1.6895826761        8.0541928736
 Ca         8.1976684264        1.7218655743       16.3890654565
  O         1.6662624766        5.1473027596        7.6084956903
  O         6.3368858130        5.1682759881       15.7226887044
  O         3.0628500924        5.1077149200        5.4684126289
  O         7.7585974703        5.2003054351       13.5218602804
  P         3.1169355831        5.1356285450        7.0310342823
  P         7.7606728988        5.1698771226       15.0662433093
 Ca         6.1936721318        5.1614051954        7.9370176223
 Ca         1.0504589443        5.1451560099       16.2897624233
  O         8.6204060524        5.1522907243        5.9825311880
  O         3.8543709114        5.1650479296       14.2755030024
  O         6.0460237129        5.1336902538        5.7818172406
  O         1.2948982156        5.1131726869       14.0382960974
  P         7.4098299380        5.1543983785        4.9680930911
  P         2.6547542646        5.1789722252       13.2716518230
 Ca         2.0595410825        5.1330374720       10.1515116678
 Ca         7.0569593295        5.1567190466       18.1560642981
  O         3.8320235037        5.1386577165        0.7431835585
  O         8.5538680026        5.1227658893        8.9439333749
  O         4.8711528667        5.1530084871        3.1347903271
  O         9.7274018171        5.2335534377       11.2568934261
  P         3.5971289400        5.1541550822        2.2122330077
  P         8.3571676191        5.1663658401       10.5009201659
 Ca         1.1962869732        5.1526335331        4.0999874286
 Ca         5.7720319993        5.1117210617       12.3375678192
 Ca         4.7014758016       -0.1020212079        4.7870425943
 Ca        -0.0000415930        0.0358358699       12.9778579576
 Ca        -0.0287837769        3.4451355422        7.4868687981
 Ca         4.7053768739        3.3196802159       15.6424099826
 Ca        -0.0325363691        6.8691588122        7.4849777838
 Ca         4.6810842560        6.9684476484       15.7059103217
 Ca         4.7137477223        3.5102130629        4.7373639798
 Ca         0.0169420721        3.4093367173       12.9866605623
  O         4.1672969993        0.4581181502        9.9614364464
  O        -0.2292019717        0.8196613596       18.2648922301
  H         4.8338707638        0.5294582136       10.6826122263
  H         0.2946994126        0.9098297485       19.0586717807
  O         5.3024676854        4.9212646689        9.9990598399
  O        -0.2179531122        4.2240536481       18.2699066048
  H         4.9125534150        4.0188818739        9.8023748565
  H         0.5072954495        4.3153933851       18.9011885096
  O         5.4176401224       12.1017401316       10.3516408311
  O        -0.1630544909       12.9828868467       18.2487589127
  H         4.2001916935       13.3537097106        9.4920262039
  H         0.5333513664       12.8581187940       18.9202612287
  O         5.0337138217        2.5359004883       10.7420922932
  O         0.3758866167        2.5861111470       18.1427595722
  H         4.1491286012        2.6868697472       10.3550690155
  H        -0.0266729670        2.5181871493       19.0240982392
  O        10.2332613417        0.4664725094        4.8143119395
  O        14.9105997376        0.5094314492       12.9526299332
  O        16.2952535048        0.3925558623        7.9960093284
  O        11.5537430607        0.3769336345       16.2381067248
  O        11.3159188076        0.4968273544        9.5067689228
  O        15.8528709532        0.4010379102       17.6840347481
  O        13.3346833490        3.8137873062        7.2500209588
  O        17.9795347204        3.9011143075       15.5019320080
  O        16.8264233021        3.8407330066        4.1418304301
  O        12.1036623318        3.9638541647       12.3510517431
  O        12.1622635499        3.8907558757        2.7757414644
  O        16.9218769789        3.8982350726       10.9286525657
  O        13.3479622488        6.3908856650        7.3755229998
  O        17.9877826932        6.4214149440       15.5128720471
  O        16.8200376448        6.4783869516        4.1515952333
  O        12.0724813035        6.4766548974       12.4427172550
  O        12.1642620547        6.4249845047        2.7712482878
  O        16.9310322524        6.4198352657       10.8984388366
  O        10.2360037874        2.9673201281        4.8243812558
  O        14.9221113096        3.0146041859       13.1653547182
  O        16.1689687931        2.9071180725        8.1133502434
  O        11.5600654451        3.0689823613       16.2351796546
  O        11.3207803947        2.9812658546        9.5069322686
  O        15.9494309772        2.9929145490       17.6846337526
  O        12.4906783707        1.7061467453        4.7391209967
  O        17.1457182266        1.7476036145       12.8925869810
  O        10.9939071751        1.6877928512        6.8361807356
  O        15.7287335032        1.6590793577       15.0491427725
  P        11.0266241607        1.7133740071        5.2847670748
  P        15.7091506118        1.7225507510       13.4742881539
 Ca        17.6691096374        1.7179051785        4.1187036880
 Ca        12.7624015449        1.7305394966       12.4015793609
  O        14.9864312874        1.6909560987        6.1607623486
  O        10.2448460324        1.7311393132       14.4963248059
  O        17.5522410043        1.7732725316        6.3729897615
  O        12.8245436944        1.7196437845       14.6016375376
  P        16.1940643913        1.6950525421        7.1502115293
  P        11.4860653849        1.7234948457       15.4627878667
 Ca        12.0175774823        1.7212929257        2.2605242289
 Ca        16.4291811426        1.7268800062       10.2651225077
  O        10.2923038872        1.7403937753       11.5096865541
  O        14.9932970098        1.7517621071       19.7477656466
  O         9.1783713468        1.7374844034        9.1767485379
  O        13.7988550606        1.7591302503       17.3855507779
  P        10.5232360125        1.7451228142        9.9672300124
  P        15.1026373173        1.7290853044       18.2532993599
 Ca        12.8660935733        1.7193519945        7.9650610035
 Ca        17.6306793342        1.7307369731       16.3643926249
  O        11.1047350054        5.1227631567        7.5689341072
  O        15.7639500424        5.1624073539       15.7117123490
  O        12.4750577447        5.1715939657        5.4038850862
  O        17.2169788010        5.1958869224       13.5299514861
  P        12.5422898885        5.1213548557        6.9734067581
  P        17.1952774423        5.1658020235       15.0782689344
 Ca        15.5685248965        5.1736727057        7.9938617926
 Ca        10.4641735516        5.1604011566       16.2722607711
  O        18.0355308376        5.1615976107        5.9829673856
  O        13.2920115022        5.1559038383       14.2983030790
  O        15.4704008016        5.1424879214        5.7605014292
  O        10.7230746148        5.1225797482       14.0477190119
  P        16.8276115593        5.1558582059        4.9550991851
  P        12.0896635966        5.1802772693       13.2941688076
 Ca        11.8150604303        5.1917480390       10.1929019237
 Ca        16.4899879429        5.1479857509       18.1762451403
  O        13.2553003567        5.1421272526        0.7418095782
  O        18.0026518454        5.1398686818        8.9582958779
  O        14.2955739988        5.1562952015        3.1330000669
  O         0.1685911790        5.1820558280       11.3287990553
  P        13.0238822778        5.1560066763        2.2121428892
  P        17.6963589167        5.1476624248       10.4942710184
 Ca        10.6262109299        5.1604025520        4.1170740874
 Ca        15.2918415430        5.1806647496       12.4664908588
 Ca        14.1211307546       -0.0971444570        4.7661101798
 Ca         9.4189486732        0.0116579805       12.9445768014
 Ca         9.4195231952        3.4606743415        7.5183762114
 Ca        14.1146255238        3.3288233653       15.6724134795
 Ca         9.4216641640        6.8761536571        7.5578100761
 Ca        14.0781141932        6.9735812758       15.7049237136
 Ca        14.0966478171        3.5255827099        4.7836995091
 Ca         9.3968651355        3.4354901768       12.9375616922
  O        14.2767835864        0.9449431827        9.5129106295
  O         9.5202857176        0.8424335895       18.1330326657
  H        13.8349588995        0.5228189868       10.3428985482
  H         9.4506126425        0.9635006468       19.0908284245
  O        13.9835183294        4.5778296967        9.3811956484
  O         9.2307822648        4.2528944186       18.2632945721
  H        14.2861468073        3.5970622737       11.1491531629
  H         9.9337873390        4.3508908669       18.9064826483
  O        14.3103338893       12.7523227651       10.5746271513
  O         9.2307477886       12.9303540703       18.2626042859
  H        14.5346631743       13.7585870493        9.3504064462
  H         9.9796916282       12.8554685950       18.8661716441
  O        14.1637818180        2.6783323941       10.8503074523
  O         9.5861165691        2.6094903772       18.1112887795
  H        13.9408198871        2.9514354636        9.9122127722
  H         9.5122166041        2.4735612025       19.0573220512
  O         0.8030902336        7.3410628235        4.8197284588
  O         5.4816637984        7.4011308916       12.9277059993
  O         6.8622661811        7.3154649762        8.0064034333
  O         2.1303669375        7.2521473548       16.2323762376
  O         1.8890511403        7.3497161785        9.5108865277
  O         6.4719152906        7.3044798988       17.6955459519
  O         3.8830951554       10.7010589804        7.2493886973
  O         8.5573291390       10.7771691580       15.5119446583
  O         7.3880921205       10.7260613833        4.1604925103
  O         2.6661874607       10.8011318770       12.3870401765
  O         2.7370895327       10.7694249080        2.7764120722
  O         7.5614449903       10.7544341444       10.9219614042
  O         3.9146465720       13.2859083201        7.3387460019
  O         8.5570009720       13.2969930720       15.5168763212
  O         7.3878584974       13.3530115439        4.1646677675
  O         2.6762286729       13.3009921158       12.3746919696
  O         2.7393383023       13.3036169521        2.7697813758
  O         7.6383018559       13.3428511150       10.9999279060
  O         0.8060510478        9.8412034107        4.8277230419
  O         5.4965386788        9.8804368009       13.2037297482
  O         6.7351458506        9.8172382970        8.1096788399
  O         2.1332927686        9.9448617728       16.2299542476
  O         1.9336724747        9.8453263545        9.5166933914
  O         6.4940894770        9.8863467085       17.6807071277
  O         3.0646733449        8.5771444517        4.7496851413
  O         7.7232234174        8.6016985557       12.8939165849
  O         1.5756895637        8.5653178151        6.8538311961
  O         6.3128704974        8.5031465849       15.0561214260
  P         1.6007705420        8.5880797291        5.2936065939
  P         6.2989547706        8.5880976104       13.4822675015
 Ca         8.2457243084        8.6106245769        4.1279231196
 Ca         3.4417060971        8.6828615026       12.3926162901
  O         5.5461841633        8.5660022266        6.1826778888
  O         0.8100942305        8.6005350500       14.5031764033
  O         8.1227850720        8.6546004156        6.3767475531
  O         3.3963940545        8.5908381687       14.5943340970
  P         6.7690858369        8.6018702380        7.1509409878
  P         2.0646105143        8.5948378437       15.4595174664
 Ca         2.5939596771        8.6044895422        2.2523868155
 Ca         7.0855123559        8.6048698794       10.2556791109
  O         0.8567871652        8.6195031518       11.5081649009
  O         5.5690552690        8.6321142331       19.7511829231
  O        18.6176304275        8.6329730484        9.1707759302
  O         4.3755547976        8.6074078900       17.3874988085
  P         1.1146699112        8.6097803492        9.9725028644
  P         5.6795053987        8.6048224538       18.2570789658
 Ca         3.5180879410        8.5750802665        7.9830329556
 Ca         8.2026549372        8.5920679446       16.3902751954
  O         1.6708721797       12.0057082708        7.5709887354
  O         6.3388130907       12.0293073294       15.7071544309
  O         3.0442361606       12.0677653323        5.3938122375
  O         7.7866685796       12.0456957072       13.5305910302
  P         3.1001953008       12.0097659974        6.9543529989
  P         7.7760055698       12.0384022602       15.0785924668
 Ca         5.9566339994       12.0030967205        8.1996796803
 Ca         1.0591510881       12.0423180085       16.2774906514
  O         8.6405585527       12.0381734368        5.9711554956
  O         3.8591448559       12.0577775162       14.2971140106
  O         6.0582291425       12.0347973785        5.8272577798
  O         1.2961168693       12.0691068427       14.0376938105
  P         7.3976649617       12.0370174567        4.9925281322
  P         2.6625592810       12.0580240652       13.2899891664
 Ca         2.1652096341       12.0983543278       10.2200904583
 Ca         7.0592412860       12.0353941087       18.1594718018
  O         3.8306853107       12.0175018492        0.7418532520
  O         8.5624451091       12.0765623246        8.9698563352
  O         4.8712388953       12.0322515454        3.1343763272
  O         9.6577284275       11.9906522823       11.3270827824
  P         3.5999395209       12.0335921133        2.2129615922
  P         8.3100527222       12.0352155930       10.5169390120
 Ca         1.1990609433       12.0420438053        4.1074062740
 Ca         5.8106723151       12.0648756220       12.5641836723
 Ca         4.7022616433        6.7822985204        4.7564684746
 Ca         0.0560693430        6.8954163236       13.0064716870
 Ca        -0.0279753811       10.3471991815        7.4877897013
 Ca         4.7090995095       10.1989752788       15.6803368124
 Ca        -0.0307576885       13.7598291191        7.5341251792
 Ca         4.6777600482       13.8648946044       15.7047899200
 Ca         4.6963032688       10.4184910268        4.7948186250
 Ca         0.0032481527       10.3010062431       13.0010478218
  O         4.9764599432        7.6447787018        9.6761006068
  O         0.1486849738        7.6786304929       18.1437306661
  H         4.4454947624        7.4540370159       10.5034117502
  H         0.0390640407        7.8360816236       19.0950640156
  O         4.2595458736       11.7639008564        9.5472157570
  O        -0.2252385019       11.0967544688       18.2774826706
  H         5.2682436114       10.6363398486       10.8443703341
  H         0.4819615641       11.2411030432       18.9193794958
  O         4.2053266558        5.5889346097       10.7533664885
  O        -0.2316508017        6.0431107873       18.2738224605
  H         5.0219079479        6.7174662424        9.4163264293
  H         0.5332562442        5.9867113039       18.8649802756
  O         4.8946800664        9.6962863900       10.7616163845
  O         0.1362188838        9.5401479701       18.1071029725
  H         4.2790324662        9.8634283618       10.0014668822
  H         0.1704316175        9.3919791435       19.0579776031
  O        10.2317803068        7.3519781506        4.8197404979
  O        14.9052709080        7.3812029496       12.8924367181
  O        16.1980346548        7.3712605180        8.1062602513
  O        11.5648462393        7.2544022375       16.2275597799
  O        11.1013211903        7.2793433272        9.4593539131
  O        15.9153310532        7.3034610263       17.6856128007
  O        13.3533799074       10.7672428907        7.4345913916
  O        17.9837568483       10.7791101310       15.5010323014
  O        16.8113703892       10.7220494944        4.1617914490
  O        11.9752005207       10.7149785007       12.5153461246
  O        12.1614923083       10.7703729831        2.7775523506
  O        16.9187033562       10.7826068279       10.8948524243
  O        13.3535437036       13.2521165336        7.4331085642
  O        17.9834732314       13.2948236899       15.5086068395
  O        16.8114410665       13.3518901956        4.1637646380
  O        12.0743801140       13.2909047032       12.3904184568
  O        12.1657019034       13.3029123075        2.7746657478
  O        16.9799928184       13.3203957359       10.9024639143
  O        10.2368965248        9.8484295308        4.8152530435
  O        14.9082691820        9.8474147419       13.0606582906
  O        16.2345415331        9.8736714827        8.0301249039
  O        11.5698659309        9.9400333655       16.2255855757
  O        11.3503916170        9.7873041730        9.5165508056
  O        15.9141238669        9.8822658920       17.6806803797
  O        12.4925383025        8.6039072009        4.7373335624
  O        17.1564462193        8.5855146489       12.8839357919
  O        11.0322848905        8.6087972793        6.8503510349
  O        15.7148261464        8.5341165358       15.0080426278
  P        11.0303321345        8.6005322007        5.2929129070
  P        15.7169125206        8.5881719041       13.4431587663
 Ca        17.6644429466        8.6018463312        4.1161604121
 Ca        12.8190633467        8.6472439112       12.3104655928
  O        14.9818333031        8.5878327529        6.1810932597
  O        10.2220776832        8.5958824065       14.5113897851
  O        17.5435457566        8.5717666426        6.3852469559
  O        12.8212981250        8.5858784301       14.5666796818
  P        16.1905678613        8.6050941971        7.1566429236
  P        11.4875764626        8.5966698465       15.4431733728
 Ca        12.0185826805        8.5982252806        2.2646457402
 Ca        16.6385614919        8.5223227327       10.2290353485
  O        10.2835239278        8.6115780763       11.5108478194
  O        14.9923002214        8.5950533615       19.7459358351
  O         9.1053466119        8.6869008926        9.1935002638
  O        13.8011417245        8.5808073013       17.3832235495
  P        10.4582557653        8.5898536422        9.9631005752
  P        15.1067150632        8.5906925139       18.2522126770
 Ca        12.9736073890        8.5784111023        8.0545288426
 Ca        17.6188620903        8.5959016950       16.3856836652
  O        11.0863404040       12.0290309038        7.5772370031
  O        15.7630775831       12.0226598452       15.7192578712
  O        12.4835932181       12.0048147117        5.4397951267
  O        17.1931169438       12.0523905227       13.5216852032
  P        12.5314059626       12.0125134524        7.0051105309
  P        17.1866782632       12.0404509055       15.0692349062
 Ca        15.3948874650       11.9857654031        8.1158213278
 Ca        10.4776477449       12.0341326604       16.2648385499
  O        18.0595387971       12.0305067057        5.9760618542
  O        13.2836533313       12.0698753092       14.2963770113
  O        15.4749443497       12.0293717667        5.8168784950
  O        10.7000369128       12.0958742902       14.0773133278
  P        16.8295257996       12.0368426452        4.9872357166
  P        12.0618645150       12.0436021842       13.3101367103
 Ca        11.5211716667       12.1036489503       10.1586466172
 Ca        16.4690690688       12.0393517174       18.1665038786
  O        13.2569494258       12.0135590927        0.7439851215
  O        18.0052684217       12.0308044056        8.9586311020
  O        14.2948547265       12.0292821952        3.1367614887
  O         0.2036901746       11.9954396641       11.3280221407
  P        13.0214290129       12.0314186262        2.2137157791
  P        17.7286486478       12.0472873164       10.4902864756
 Ca        10.6109705290       12.0356670004        4.1162270439
 Ca        15.1958457106       12.0032334487       12.4079399983
 Ca        14.0997994589        6.7799972608        4.7727160657
 Ca         9.4589062629        6.9035673007       12.9657873765
 Ca         9.3846579293       10.3541971901        7.5192808218
 Ca        14.1000836675       10.2074795915       15.6613552061
 Ca         9.3677091086       13.7317846114        7.5092132983
 Ca        14.1007200486       13.8584928882       15.6964835748
 Ca        14.1221950439       10.4046315673        4.7646762970
 Ca         9.4692992846       10.3054143365       12.9633979396
  O        13.7090420085        7.5278683616        9.9761821089
  O         9.5428727780        7.7294040445       18.1275776778
  H        14.2232632914        7.6743237028       10.7946763790
  H         9.4868381324        7.8442317717       19.0805077722
  O        13.5164979030       11.5308925996       10.5041067859
  O         9.2058952029       11.1638754585       18.2976608073
  H        15.0648491806       10.4813677773       10.3301318214
  H         9.9855692495       11.2126109557       18.8660565940
  O        14.1073526589        5.3548823456       10.6296834844
  O         9.1966166722        6.0501413146       18.3170738337
  H        13.8348905860        6.5638725302        9.9866473894
  H         9.9918895142        5.9788677318       18.8622472670
  O        14.7323430759        9.5800213710       10.1332335459
  O         9.5714536293        9.4639194179       18.1319143891
  H        13.7664532866        9.7317926506       10.2508773226
  H         9.4274353890        9.3571652177       19.0838952293
  O         8.2550307305        6.8106497401       25.4927548461
  C         9.3393141385        7.3001449589       25.4471867800
  O        10.4076290828        7.7849848635       25.4037907797
     387
 i =       27, E =     -6921.7080839036
  O         0.8046676515        0.4816603776        4.8286766667
  O         5.4877967847        0.5493242468       12.9361313673
  O         6.7488678604        0.4780240577        8.1037985565
  O         2.1139221848        0.3816995143       16.2339393512
  O         1.6232382630        0.4255459852        9.4097783289
  O         6.4854902910        0.4175860621       17.6992491880
  O         3.9268296276        3.9070823226        7.5406319462
  O         8.5518879826        3.9080317861       15.5045198326
  O         7.3948696028        3.8361407875        4.1519836313
  O         2.6552364093        3.9613325496       12.3263859328
  O         2.7415053866        3.8935124218        2.7793410832
  O         7.7042091232        3.8623720036       11.0013082604
  O         3.9331517936        6.3943170719        7.4122992415
  O         8.5678619034        6.4153130616       15.5270110608
  O         7.3885892227        6.4761726546        4.1650173137
  O         2.5662085206        6.4942066011       12.4591086072
  O         2.7468447109        6.4206667330        2.7777615010
  O         7.5407658583        6.4059748554       10.9055404115
  O         0.7988810399        2.9725593481        4.8238873634
  O         5.5022420989        3.0429239741       13.3090350621
  O         6.7533764364        2.9659497279        8.1067740758
  O         2.1552268513        3.0675709606       16.2125841065
  O         1.9448101747        2.8940810564        9.5106620338
  O         6.5023967548        2.9983968639       17.6912183006
  O         3.0666867629        1.7398867502        4.7474736541
  O         7.7175819772        1.7464401852       12.9200415545
  O         1.6164493566        1.7493660178        6.8579381142
  O         6.3243798967        1.5883282510       15.0834843623
  P         1.6060425764        1.7293395998        5.3041910384
  P         6.2970523940        1.7396105137       13.5176282802
 Ca         8.2406722879        1.7080196862        4.1163287739
 Ca         3.4747547565        1.7669194051       12.3258112841
  O         5.5470497675        1.7447046831        6.1924337794
  O         0.7906879884        1.7396147051       14.5042628168
  O         8.1030571898        1.7455612781        6.3995255087
  O         3.3710610893        1.6839979504       14.5660047886
  P         6.7497015061        1.7199188352        7.1808681936
  P         2.0538611432        1.7248205327       15.4414778346
 Ca         2.6064332353        1.7133451374        2.2564513952
 Ca         7.1116537717        1.7537220991       10.2546645390
  O         0.8640624118        1.7470557207       11.5167593793
  O         5.5672378615        1.7238394935       19.7556360189
  O        18.4985391990        1.8712826401        9.2444543681
  O         4.3846846695        1.7079396837       17.3819966662
  P         1.0169603713        1.7216765168        9.9663379331
  P         5.6824440886        1.7158486790       18.2659793423
 Ca         3.5666534054        1.6872354600        8.0578969463
 Ca         8.2032227973        1.7211788445       16.4144381144
  O         1.6729516401        5.1438461257        7.6207371186
  O         6.3318992965        5.1725329398       15.7251418753
  O         3.0622259237        5.1102194566        5.4721070921
  O         7.7487178516        5.2031584566       13.5265045790
  P         3.1226523483        5.1327570442        7.0386383010
  P         7.7565032020        5.1735790495       15.0667969210
 Ca         6.2265644571        5.1592081707        7.9005351088
 Ca         1.0378550145        5.1400012335       16.2947732672
  O         8.6145707986        5.1501877704        5.9842159833
  O         3.8499669979        5.1729348247       14.2706093198
  O         6.0456682168        5.1276188439        5.7627641221
  O         1.2767066600        5.1195002601       14.0430960503
  P         7.4125070707        5.1521318158        4.9640000052
  P         2.6444150453        5.1854294515       13.2770175281
 Ca         2.0751912441        5.1308098233       10.1413771458
 Ca         7.0702057796        5.1565286547       18.1256011732
  O         3.8278804246        5.1324341288        0.7431494036
  O         8.5560594464        5.1145236509        8.9443046879
  O         4.8681143492        5.1509823884        3.1368050834
  O         9.7421754572        5.2382452863       11.2483091997
  P         3.5973088938        5.1525639758        2.2089528591
  P         8.3715078013        5.1691254775       10.5023859467
 Ca         1.1955682299        5.1514778798        4.0998380876
 Ca         5.7660768255        5.1016000437       12.2936524756
 Ca         4.7025485146       -0.0999011801        4.7808254391
 Ca        -0.0091197689        0.0441841858       12.9726698691
 Ca        -0.0312533721        3.4472784516        7.4721599649
 Ca         4.7086115512        3.3188287092       15.6321539587
 Ca        -0.0293583807        6.8668015061        7.4739040855
 Ca         4.6773148151        6.9643329296       15.7085689046
 Ca         4.7129822237        3.5064752924        4.7215899494
 Ca         0.0097297896        3.4106317203       12.9885000995
  O         4.1269732466        0.4728731048        9.9620556600
  O        -0.2228677428        0.8350120703       18.2793837100
  H         4.8385309215        0.5120327515       10.6217454128
  H         0.3105924661        0.9516430146       19.0672645208
  O         5.2374845056        4.9743010145        9.9520428021
  O        -0.2253734313        4.2352793565       18.2908894999
  H         4.9540521089        3.9681481895        9.8506037751
  H         0.5114277127        4.3339438383       18.9160209229
  O         5.3816823081       12.0598587008       10.3394127372
  O        -0.1740591169       12.9664557976       18.2780471547
  H         4.1797888926       13.2993236159        9.5129668866
  H         0.5318502737       12.8368521776       18.9245457330
  O         5.0161797711        2.5935937863       10.7425905788
  O         0.4162813358        2.5755076480       18.1671991129
  H         4.1315357774        2.6733515048       10.3324819283
  H        -0.0703299290        2.5069122028       19.0102164360
  O        10.2248520066        0.4640498568        4.8075176573
  O        14.9119785587        0.5224699815       12.9454372954
  O        16.3025273002        0.3785494529        7.9873165045
  O        11.5467995500        0.3769854922       16.2352482060
  O        11.3149505649        0.5065024216        9.5008436820
  O        15.8416159838        0.3895675820       17.6899469196
  O        13.3327676046        3.8105530173        7.1980355143
  O        17.9842565362        3.9049330982       15.5090101959
  O        16.8318936805        3.8418347573        4.1335135746
  O        12.0978019052        3.9648846055       12.3618387133
  O        12.1653939664        3.8922333094        2.7775986981
  O        16.9093011174        3.9009710793       10.9256124306
  O        13.3447505096        6.3920464583        7.3512325890
  O        17.9938110740        6.4176454537       15.5272492739
  O        16.8221329855        6.4780174773        4.1494154606
  O        12.0759807480        6.4825050727       12.4561642651
  O        12.1677296761        6.4223252663        2.7713384049
  O        16.9238894727        6.4168350663       10.9022131345
  O        10.2324125728        2.9675745184        4.8218049788
  O        14.9219756161        3.0263390182       13.2046353624
  O        16.1697102498        2.8963637972        8.1073589843
  O        11.5519504728        3.0692276678       16.2327577192
  O        11.3209951964        2.9845162112        9.5002449276
  O        15.9538151754        2.9876521635       17.6871861632
  O        12.4870322221        1.6985248573        4.7488956665
  O        17.1446854977        1.7534520927       12.8903165409
  O        10.9605448840        1.6808149261        6.8271547017
  O        15.7370591803        1.6511184348       15.0624148003
  P        11.0170795185        1.7099363600        5.2812679810
  P        15.7083671873        1.7296964504       13.4825199052
 Ca        17.6673182806        1.7166659886        4.1089471717
 Ca        12.7536415016        1.7217698148       12.4019829375
  O        15.0007271076        1.6785183348        6.1457030015
  O        10.2464307897        1.7356343565       14.4897735639
  O        17.5623495519        1.7690114940        6.3724531453
  O        12.8144095918        1.7177743625       14.6064828158
  P        16.1988046131        1.6765263242        7.1507517099
  P        11.4791632788        1.7256902245       15.4621774996
 Ca        12.0282239331        1.7210253482        2.2569474347
 Ca        16.4254168648        1.7327612544       10.2606805750
  O        10.2904030239        1.7465899165       11.5018971374
  O        14.9942749052        1.7573589478       19.7524618038
  O         9.1728285149        1.7453268653        9.1815118709
  O        13.8045690486        1.7652238323       17.3812600015
  P        10.5235255996        1.7526273291        9.9625548346
  P        15.1003091846        1.7294526084       18.2632899967
 Ca        12.8700311669        1.7351074227        7.9394809963
 Ca        17.6475127673        1.7416541929       16.4052251797
  O        11.1170041101        5.1168969801        7.5632478738
  O        15.7608654427        5.1661614001       15.7105623368
  O        12.4710223426        5.1837753297        5.3900280559
  O        17.2108904497        5.1989954122       13.5372044488
  P        12.5448861781        5.1167674898        6.9575377546
  P        17.1934500401        5.1702555105       15.0812163729
 Ca        15.5700778851        5.1701947627        8.0066547226
 Ca        10.4611340160        5.1590629478       16.2667312566
  O        18.0302292074        5.1631003873        5.9823190110
  O        13.2853171771        5.1621876491       14.3075227588
  O        15.4703748889        5.1390120026        5.7513201833
  O        10.7115720286        5.1334933278       14.0458901904
  P        16.8279394181        5.1550305387        4.9519451700
  P        12.0823225349        5.1851677713       13.2978999898
 Ca        11.8366511544        5.1809619437       10.1924505227
 Ca        16.5161656519        5.1430181507       18.1493391571
  O        13.2506398139        5.1358225912        0.7418193640
  O        18.0055221150        5.1337245520        8.9636023578
  O        14.2921264425        5.1550489852        3.1357966648
  O         0.1664222747        5.1835539205       11.3242660829
  P        13.0249051424        5.1543152755        2.2093960328
  P        17.6905062389        5.1454511109       10.4978437171
 Ca        10.6222046413        5.1612948171        4.1134795871
 Ca        15.2818263859        5.1917429516       12.4620206723
 Ca        14.1245953879       -0.1019508822        4.7591681005
 Ca         9.4112703290        0.0188592016       12.9396549606
 Ca         9.4262931279        3.4602360408        7.5131912859
 Ca        14.1206196807        3.3274649561       15.6647366708
 Ca         9.4264223251        6.8762902082        7.5583221916
 Ca        14.0730494085        6.9693122022       15.7111848347
 Ca        14.0930437077        3.5240052320        4.7791496802
 Ca         9.3904077120        3.4418346563       12.9280891324
  O        14.2921697304        0.9651889255        9.4854104386
  O         9.5475844286        0.8528553845       18.1372828187
  H        13.8446898499        0.5306141663       10.3226354171
  H         9.4146215444        0.9532805987       19.0897903924
  O        13.9077904209        4.5597912081        9.3790110428
  O         9.2331120194        4.2192675080       18.2884326275
  H        14.2658999309        3.6089520046       11.1712581313
  H         9.9402508725        4.3605102053       18.9217530722
  O        14.3298750668       12.7615218836       10.4967810793
  O         9.2298105529       12.9561223322       18.2899403320
  H        14.5322709205       13.7663645205        9.3305353563
  H         9.9917867962       12.8466421912       18.8841238714
  O        14.1735033124        2.6674523559       10.8786104817
  O         9.6288980859        2.6144338947       18.1196198662
  H        13.9491387903        2.9762272508        9.9380028196
  H         9.4810882557        2.4777471713       19.0645695712
  O         0.7954776224        7.3403692553        4.8185189128
  O         5.4788968387        7.4092010223       12.9304460698
  O         6.8757572533        7.3157827953        8.0057703712
  O         2.1247315098        7.2489186830       16.2292938675
  O         1.8913579247        7.3501014730        9.5082131968
  O         6.4653565080        7.3040750044       17.7005500597
  O         3.8745521093       10.7023287404        7.2129849885
  O         8.5617236017       10.7793289210       15.5197822297
  O         7.3887303582       10.7270018996        4.1641303411
  O         2.6662914010       10.8150830873       12.3860978332
  O         2.7396702937       10.7710573161        2.7780052082
  O         7.5735135479       10.7591349379       10.9332699340
  O         3.9100392157       13.2821759273        7.3191207883
  O         8.5605205074       13.2929436064       15.5290970571
  O         7.3879846633       13.3531110946        4.1705427518
  O         2.6763282394       13.3036515001       12.3771752441
  O         2.7426747726       13.3010124161        2.7691511242
  O         7.6339433104       13.3431877077       10.9949906431
  O         0.8041889123        9.8385380796        4.8290088500
  O         5.5014347147        9.8899391512       13.2321304646
  O         6.7314267150        9.8074332614        8.1069459143
  O         2.1281772696        9.9473459360       16.2262120156
  O         1.9527392266        9.8462089570        9.5156061646
  O         6.4986358151        9.8850014689       17.6821402879
  O         3.0616117469        8.5688221922        4.7556253535
  O         7.7270589610        8.6081001807       12.8923818185
  O         1.5601870571        8.5611841679        6.8535308964
  O         6.3201951584        8.4832615114       15.0645374904
  P         1.5952933388        8.5840139766        5.2977887316
  P         6.2999836370        8.5917293636       13.4900578354
 Ca         8.2442729448        8.6125814651        4.1153824565
 Ca         3.4436126048        8.6742198264       12.3985401352
  O         5.5553404839        8.5619741672        6.1741521485
  O         0.8095393416        8.6044647585       14.5012925737
  O         8.1307675848        8.6574283862        6.3765819655
  O         3.3853455859        8.5887374683       14.6008721307
  P         6.7739571553        8.5946337416        7.1507278402
  P         2.0584708736        8.5957633790       15.4611484541
 Ca         2.6058481307        8.6051362820        2.2502541531
 Ca         7.0810107730        8.6061659480       10.2592600410
  O         0.8560773482        8.6285729545       11.4973805643
  O         5.5685544683        8.6389370583       19.7570409007
  O        18.6241056326        8.6358014563        9.1664421394
  O         4.3797184122        8.6123494642       17.3852213150
  P         1.1235695141        8.6155363809        9.9664101191
  P         5.6774285981        8.6071213835       18.2674210151
 Ca         3.5221028780        8.5827711347        7.9734279294
 Ca         8.2039976369        8.5913751513       16.4112042565
  O         1.6815884761       12.0010254277        7.5665102536
  O         6.3321096290       12.0271962621       15.7024656689
  O         3.0398068443       12.0764313148        5.3765672567
  O         7.7732260405       12.0484939576       13.5390059776
  P         3.0984541173       12.0120007448        6.9364891850
  P         7.7744108240       12.0378968390       15.0837702537
 Ca         5.9791660826       11.9981243834        8.1583298269
 Ca         1.0462616708       12.0417091813       16.2766019452
  O         8.6367892221       12.0387596495        5.9729608183
  O         3.8567752799       12.0669566231       14.3062614838
  O         6.0628650924       12.0330451573        5.8313013197
  O         1.2806448660       12.0741501437       14.0352788911
  P         7.3970805579       12.0368313278        4.9956682731
  P         2.6556238080       12.0621685958       13.2948834018
 Ca         2.1714555741       12.0910845113       10.2252745038
 Ca         7.0748571632       12.0347235375       18.1304374565
  O         3.8266487151       12.0102768188        0.7428370283
  O         8.5673131301       12.0784785363        8.9819809697
  O         4.8680260119       12.0302778448        3.1393660075
  O         9.6624497303       11.9954309182       11.3329856887
  P         3.6008995089       12.0315025367        2.2110683856
  P         8.3117996957       12.0389597475       10.5277492458
 Ca         1.1901514661       12.0427024290        4.1014594830
 Ca         5.7972548774       12.0856284089       12.5610854997
 Ca         4.6991970618        6.7796152877        4.7465038526
 Ca         0.0587552731        6.8985866145       13.0110438374
 Ca        -0.0311330950       10.3484990185        7.4760106391
 Ca         4.7178210959       10.1925266065       15.6740165461
 Ca        -0.0372053036       13.7610739823        7.5320404709
 Ca         4.6733672845       13.8625822309       15.7136829851
 Ca         4.6953463597       10.4159057976        4.7892825127
 Ca        -0.0023127610       10.2961054822       13.0030985913
  O         4.9748819094        7.6632255056        9.6593669370
  O         0.1956452068        7.7210657254       18.1386384022
  H         4.4721834121        7.4319895485       10.4774545184
  H        -0.0053348390        7.8489420493       19.0999184417
  O         4.2686453219       11.7711515637        9.5539633304
  O        -0.2387411258       11.1127077343       18.3093010469
  H         5.2728951072       10.6536661464       10.8290924485
  H         0.4819456246       11.2706839549       18.9263980059
  O         4.2473145768        5.5749462552       10.7894436351
  O        -0.2480926977        6.0073659693       18.3014396587
  H         5.0037639446        6.7189408054        9.3961436920
  H         0.5405461448        5.9553977919       18.8773976360
  O         4.8865665307        9.6820943255       10.7954559731
  O         0.1880964525        9.5093857160       18.1090621183
  H         4.2847337409        9.9086495964       10.0058997790
  H         0.1458780300        9.3570252992       19.0610376818
  O        10.2269789626        7.3537016273        4.8201705980
  O        14.9005501059        7.3943066581       12.8755779727
  O        16.1950415806        7.3809741843        8.1079508863
  O        11.5586551399        7.2536347881       16.2249666404
  O        11.0847978110        7.2697601034        9.4438933935
  O        15.9191584035        7.3024634740       17.6888010840
  O        13.3499911270       10.7663485170        7.4338119907
  O        17.9889236541       10.7809060604       15.5086843226
  O        16.8132388179       10.7206529410        4.1649205456
  O        11.9558282328       10.7180450534       12.5399772489
  O        12.1636147818       10.7722593443        2.7797801475
  O        16.9030403457       10.7902886011       10.9006086963
  O        13.3503568752       13.2428103582        7.4310087435
  O        17.9879871786       13.2931719770       15.5218872960
  O        16.8126237001       13.3516176557        4.1677629108
  O        12.0726386044       13.2811114252       12.3913288331
  O        12.1700554258       13.3000105435        2.7755813283
  O        16.9827647654       13.3208264074       10.9041117004
  O        10.2328158119        9.8478562453        4.8132302022
  O        14.9066558973        9.8477745775       13.0621693757
  O        16.2585369742        9.8764060335        8.0101539142
  O        11.5670175895        9.9401969346       16.2206763232
  O        11.3636650026        9.7705448827        9.5123265738
  O        15.9142591487        9.8815886870       17.6835024235
  O        12.4906258373        8.6052064708        4.7444838095
  O        17.1605368238        8.5834590311       12.8777175576
  O        11.0243911175        8.6137243165        6.8513832695
  O        15.7159981771        8.5309355624       15.0047407457
  P        11.0270719833        8.6011246080        5.2983728557
  P        15.7184486409        8.5918729236       13.4391280220
 Ca        17.6617643155        8.6024215662        4.1037424764
 Ca        12.7906191958        8.6506980636       12.3408942491
  O        14.9861464152        8.5817748760        6.1730611015
  O        10.2231544768        8.5942015885       14.5053275854
  O        17.5508806433        8.5583278082        6.3815820147
  O        12.8088797938        8.5789212880       14.5702565477
  P        16.1952204023        8.6047624732        7.1497322713
  P        11.4804912073        8.5946281573       15.4430977175
 Ca        12.0300691177        8.5982138926        2.2627569168
 Ca        16.6665471158        8.5124088167       10.2253005206
  O        10.2801655212        8.6129560375       11.5011955440
  O        14.9928214600        8.5938552870       19.7504620506
  O         9.1028264599        8.7035791831        9.1933958883
  O        13.8078818157        8.5775075863       17.3785216890
  P        10.4565037547        8.5814584682        9.9559884676
  P        15.1073068039        8.5889225153       18.2615141338
 Ca        12.9820954236        8.5694140996        8.0596198242
 Ca        17.6317782489        8.5889805997       16.4318481640
  O        11.0883171583       12.0240016633        7.5796135425
  O        15.7591063131       12.0157132544       15.7181237238
  O        12.4809528894       12.0017390489        5.4341661686
  O        17.1856103290       12.0580227334       13.5313807342
  P        12.5319155221       12.0094183549        7.0025754894
  P        17.1860904601       12.0395913749       15.0737562685
 Ca        15.3790978640       11.9791289621        8.1277731727
 Ca        10.4742050290       12.0351734243       16.2684695836
  O        18.0582179440       12.0286200588        5.9736072814
  O        13.2765368077       12.0695855351       14.3015514029
  O        15.4767443694       12.0238946651        5.8198019206
  O        10.6801625115       12.0949645078       14.0875794420
  P        16.8277571128       12.0356420661        4.9934033757
  P        12.0457069025       12.0415725503       13.3204838091
 Ca        11.5019229644       12.1073138808       10.1378397414
 Ca        16.4995062872       12.0397073804       18.1367436518
  O        13.2528635782       12.0068145749        0.7444383812
  O        18.0115002502       12.0231408710        8.9599765837
  O        14.2914984679       12.0264044809        3.1394472774
  O         0.2044131031       11.9966599938       11.3167377151
  P        13.0213367644       12.0292179562        2.2110543070
  P        17.7242452716       12.0453618182       10.4901278888
 Ca        10.6073172863       12.0342047621        4.1145595625
 Ca        15.1712274777       12.0266342179       12.3989242610
 Ca        14.0962982954        6.7788883194        4.7638723488
 Ca         9.4545785429        6.9050355666       12.9634565372
 Ca         9.3806435715       10.3582486598        7.5085489382
 Ca        14.0984953208       10.2014633156       15.6569744001
 Ca         9.3620007511       13.7342181812        7.5009796531
 Ca        14.0984635492       13.8634240967       15.7027742306
 Ca        14.1252927490       10.4031694740        4.7545940239
 Ca         9.4642410188       10.3009696556       12.9666751104
  O        13.7046065647        7.5685230865        9.9980294394
  O         9.5831898981        7.7242095708       18.1350075796
  H        14.2504899401        7.7132630902       10.7764566476
  H         9.4552074014        7.8325756305       19.0892336181
  O        13.5483049701       11.5375862078       10.5031437076
  O         9.1976180992       11.1360047100       18.3218182509
  H        15.0473902423       10.4760944233       10.3632429794
  H         9.9952494606       11.2199563766       18.8827648876
  O        14.1300396166        5.2420518159       10.6290849737
  O         9.1939730630        6.0777759505       18.3478078163
  H        13.7974464498        6.5466099103       10.0386412947
  H         9.9965013818        5.9744686883       18.8726278932
  O        14.7574527419        9.5583391131       10.1188258229
  O         9.6167933810        9.4540046353       18.1378443187
  H        13.8049622077        9.7473856563       10.2388357414
  H         9.3895532454        9.3742594880       19.0811885978
  O         8.2470666860        6.8142513180       25.4938999187
  C         9.3406165475        7.2948905739       25.4455145620
  O        10.4241350109        7.7934354348       25.4034685959
     387
 i =       28, E =     -6921.7495927271
  O         0.8043163610        0.4862627579        4.8295296659
  O         5.4878128153        0.5649611585       12.9321376260
  O         6.7473474818        0.4778040154        8.1046456650
  O         2.1078494882        0.3822203412       16.2309905292
  O         1.5948321852        0.4114788315        9.3950198722
  O         6.4824136232        0.4200869418       17.7067016814
  O         3.9244917617        3.9064654280        7.5461559251
  O         8.5468703631        3.9105418989       15.5043375364
  O         7.4008958591        3.8343464912        4.1475453386
  O         2.6474697757        3.9690582871       12.3345642764
  O         2.7441638021        3.9007996245        2.7788144706
  O         7.7116289928        3.8625258049       10.9985931886
  O         3.9348412175        6.3946942576        7.4074385991
  O         8.5657801257        6.4126478255       15.5402628157
  O         7.3920124613        6.4767297464        4.1667300343
  O         2.5615059966        6.4964699729       12.4593450708
  O         2.7508691966        6.4123523678        2.7756140889
  O         7.5512173438        6.4044375587       10.9064337972
  O         0.7947331216        2.9709960745        4.8244142061
  O         5.5062394286        3.0553390597       13.3454136554
  O         6.7513582244        2.9603361689        8.1138181745
  O         2.1584679045        3.0679217608       16.2051570419
  O         1.9640786709        2.8807359365        9.5114231944
  O         6.5040861322        2.9867927374       17.6969942218
  O         3.0635489810        1.7451883727        4.7497726418
  O         7.7144059082        1.7587447740       12.9299708409
  O         1.6130353180        1.7546120941        6.8585961461
  O         6.3326507659        1.5666267794       15.0903741225
  P         1.6031357854        1.7318016543        5.3067931311
  P         6.3018835187        1.7463561180       13.5349522617
 Ca         8.2369778049        1.7066177047        4.1061985007
 Ca         3.4548298752        1.7744285669       12.3517298300
  O         5.5520793593        1.7489564242        6.1903228189
  O         0.7898756557        1.7434773245       14.5065269971
  O         8.0991280448        1.7485438589        6.4006702224
  O         3.3652837048        1.6761531023       14.5726025059
  P         6.7483407054        1.7231629586        7.1820730576
  P         2.0490755035        1.7221964730       15.4417736233
 Ca         2.6217128108        1.7119927919        2.2559987261
 Ca         7.1113838509        1.7607478587       10.2576774050
  O         0.8650624870        1.7438998210       11.5115105901
  O         5.5660784446        1.7259890034       19.7597208998
  O        18.4935268696        1.8974630264        9.2515932957
  O         4.3948603646        1.7046630307       17.3812216645
  P         1.0143716188        1.7222739100        9.9623671123
  P         5.6844509041        1.7133955671       18.2630597377
 Ca         3.5661134063        1.6844422348        8.0545236726
 Ca         8.2079539151        1.7212080620       16.4378811401
  O         1.6808530621        5.1397372918        7.6283693376
  O         6.3281208395        5.1774799621       15.7274202103
  O         3.0613241624        5.1094425484        5.4780851188
  O         7.7399406581        5.2048084891       13.5246746798
  P         3.1257993705        5.1284593840        7.0447682336
  P         7.7531515822        5.1764486590       15.0667805809
 Ca         6.2554414166        5.1560645610        7.8810445252
 Ca         1.0320612987        5.1371080942       16.2970455825
  O         8.6058583785        5.1471282909        5.9841042684
  O         3.8436636177        5.1830153933       14.2690307847
  O         6.0438258881        5.1229662825        5.7326747528
  O         1.2600051013        5.1222903389       14.0480671910
  P         7.4142294691        5.1495523918        4.9555417148
  P         2.6331670059        5.1894244634       13.2825187430
 Ca         2.0917202729        5.1301166048       10.1379880815
 Ca         7.0802044765        5.1566988834       18.0963269821
  O         3.8242132238        5.1265618951        0.7395942419
  O         8.5591805104        5.1132471361        8.9434119945
  O         4.8647757303        5.1483155006        3.1326001484
  O         9.7533025813        5.2445546431       11.2383057799
  P         3.5977636395        5.1507232065        2.2144902275
  P         8.3819312184        5.1680255822       10.4998449004
 Ca         1.1959002361        5.1502226450        4.1006891539
 Ca         5.7756915854        5.0895004004       12.2681574480
 Ca         4.7025079331       -0.0954497090        4.7755253344
 Ca        -0.0206198086        0.0499825014       12.9680982010
 Ca        -0.0327407773        3.4489775553        7.4600629806
 Ca         4.7108667682        3.3196932485       15.6255680845
 Ca        -0.0246939491        6.8633913662        7.4659570706
 Ca         4.6722378015        6.9596405375       15.7136600339
 Ca         4.7106493358        3.5009847666        4.7068730885
 Ca         0.0019699602        3.4129562149       12.9908413612
  O         4.0826240616        0.4559562535        9.9429266277
  O        -0.2196817179        0.8492029531       18.2902429689
  H         4.8502136470        0.5038834854       10.5862884984
  H         0.3373657340        0.9889918617       19.0856934050
  O         5.2203047257        5.0023055358        9.8725423855
  O        -0.2189601775        4.2231540224       18.3098849218
  H         5.0077523248        3.9563814376        9.8975374366
  H         0.5148616065        4.3484713145       18.9345583518
  O         5.4140734248       12.0185607298       10.3675494524
  O        -0.1898661850       12.9693369500       18.2949835529
  H         4.1471115075       13.2663071693        9.5350332178
  H         0.5436396182       12.8169364399       18.9464305599
  O         5.0052833944        2.6533144434       10.7378056715
  O         0.4510687326        2.5595645949       18.2019071846
  H         4.1009717637        2.6483841124       10.3165670367
  H        -0.1093370497        2.4971455545       19.0013692776
  O        10.2158403732        0.4635441194        4.7970236894
  O        14.9124590684        0.5398789729       12.9416286161
  O        16.3157323520        0.3644764357        7.9723129451
  O        11.5417508008        0.3795423615       16.2290883959
  O        11.3138338986        0.5176687782        9.4973700094
  O        15.8297826318        0.3886644489       17.6993237936
  O        13.3359268909        3.8082525486        7.1518174577
  O        17.9810927128        3.9084330452       15.5128509387
  O        16.8395854581        3.8448319359        4.1214527941
  O        12.0928271401        3.9660986431       12.3728371083
  O        12.1681411833        3.8990169624        2.7773485726
  O        16.8908806709        3.9031097464       10.9221142458
  O        13.3444201639        6.3875463009        7.3344844623
  O        17.9933841748        6.4153923666       15.5430261981
  O        16.8249168005        6.4769358334        4.1453506120
  O        12.0802243744        6.4883606467       12.4659719371
  O        12.1712010132        6.4142911970        2.7686077098
  O        16.9104753469        6.4133622736       10.9022863112
  O        10.2292382621        2.9659768440        4.8175424001
  O        14.9236628393        3.0450115088       13.2401196424
  O        16.1679422285        2.8876103974        8.0989685717
  O        11.5451840101        3.0693273614       16.2274611775
  O        11.3210761170        2.9897968761        9.4948902366
  O        15.9542339830        2.9776249831       17.6923593295
  O        12.4807078274        1.6892813812        4.7579980553
  O        17.1377142528        1.7593499093       12.8884145941
  O        10.9350877378        1.6763023886        6.8221750427
  O        15.7458193174        1.6396575362       15.0713502596
  P        11.0054926535        1.7060116295        5.2748949775
  P        15.7126026377        1.7370682932       13.4956882742
 Ca        17.6660648531        1.7154799367        4.1020567726
 Ca        12.7424537399        1.7159304056       12.4067345916
  O        15.0141304185        1.6691385367        6.1350472273
  O        10.2473844463        1.7403428376       14.4865367629
  O        17.5702832388        1.7640179135        6.3747987497
  O        12.8083007341        1.7152913945       14.6084130147
  P        16.2071680382        1.6653111433        7.1438218104
  P        11.4730888467        1.7257233453       15.4600346117
 Ca        12.0410929941        1.7206211546        2.2531167482
 Ca        16.4194655212        1.7370948382       10.2607050349
  O        10.2902525771        1.7521085749       11.4933453620
  O        14.9945627588        1.7618756011       19.7570207149
  O         9.1701758695        1.7527927062        9.1822096945
  O        13.8133869557        1.7698427395       17.3810888684
  P        10.5208582800        1.7588256247        9.9570908360
  P        15.0994271687        1.7231353366       18.2601168936
 Ca        12.8721257007        1.7455282593        7.9160822972
 Ca        17.6582343651        1.7507524695       16.4371775890
  O        11.1320860747        5.1120088125        7.5560579969
  O        15.7586919258        5.1709895795       15.7098616259
  O        12.4654538864        5.1972457660        5.3760344791
  O        17.2048023630        5.2006440671       13.5380561906
  P        12.5443335439        5.1240895083        6.9360485055
  P        17.1924711089        5.1737650863       15.0826695623
 Ca        15.5663649321        5.1612142843        8.0189914154
 Ca        10.4571254082        5.1572611235       16.2673077820
  O        18.0218209229        5.1646914742        5.9790697404
  O        13.2739069110        5.1709352037       14.3186380425
  O        15.4717671246        5.1346877659        5.7441676267
  O        10.6989278222        5.1412194381       14.0422541891
  P        16.8279153641        5.1538682294        4.9455342189
  P        12.0758502892        5.1892758207       13.3076462546
 Ca        11.8424756377        5.1695301700       10.1965603324
 Ca        16.5206798516        5.1400415515       18.1226735565
  O        13.2464354750        5.1290351741        0.7388102512
  O        18.0046800296        5.1301801439        8.9679353835
  O        14.2886155165        5.1529130614        3.1329986816
  O         0.1666135478        5.1839503126       11.3175989072
  P        13.0258364698        5.1521164344        2.2154795370
  P        17.6877528227        5.1430934508       10.4994064296
 Ca        10.6183413751        5.1627933067        4.1084912904
 Ca        15.2790295926        5.2003973304       12.4693855132
 Ca        14.1285229099       -0.1062001838        4.7533726073
 Ca         9.4024276329        0.0276761038       12.9392449679
 Ca         9.4332561693        3.4589537247        7.5101072450
 Ca        14.1260699688        3.3268500473       15.6577888120
 Ca         9.4316427437        6.8769317449        7.5601328054
 Ca        14.0681393320        6.9654825495       15.7204411637
 Ca        14.0896927552        3.5209875472        4.7743551608
 Ca         9.3840182404        3.4489848694       12.9223196124
  O        14.3024020490        0.9717443865        9.4608190147
  O         9.5892232031        0.8509978245       18.1439538590
  H        13.8497840077        0.5599781658       10.2964477238
  H         9.3766692398        0.9485044725       19.0953529581
  O        13.8370359927        4.5421195838        9.3288273049
  O         9.2316460499        4.1951858158       18.3057301698
  H        14.2480060025        3.6022045484       11.2173105167
  H         9.9553695455        4.3780336952       18.9478888515
  O        14.3620851370       12.7597153187       10.4325591157
  O         9.2379664428       12.9809154067       18.3170987848
  H        14.5398339058       13.7802151430        9.2838812120
  H        10.0009660729       12.8345831279       18.9016891659
  O        14.1870753468        2.6891938770       10.9088883918
  O         9.6793942347        2.6150604397       18.1318254939
  H        13.9529919768        2.9972682905        9.9638692647
  H         9.4510962241        2.4788262620       19.0723097572
  O         0.7897216242        7.3405250741        4.8166525430
  O         5.4775089769        7.4162592560       12.9306533213
  O         6.8943001932        7.3125415335        8.0027989872
  O         2.1191481134        7.2478427077       16.2242709974
  O         1.8914028430        7.3517083178        9.5075119085
  O         6.4538242957        7.3092872097       17.7081971739
  O         3.8672089506       10.7013332474        7.1775293798
  O         8.5597994464       10.7797305075       15.5266235822
  O         7.3897297306       10.7290540298        4.1675698047
  O         2.6662626483       10.8277810090       12.3854621479
  O         2.7418956012       10.7779587678        2.7773808822
  O         7.5825485565       10.7639333981       10.9467954390
  O         3.9090616326       13.2777595742        7.2959258913
  O         8.5582043774       13.2902457359       15.5441120494
  O         7.3878748058       13.3525578754        4.1757152421
  O         2.6755360213       13.3053579361       12.3774581918
  O         2.7462174521       13.2926710986        2.7655850979
  O         7.6261822701       13.3484943006       10.9931051246
  O         0.8036973162        9.8349404484        4.8286270308
  O         5.5074815368        9.9038048271       13.2650028978
  O         6.7271971495        9.7974889333        8.1044018483
  O         2.1233717360        9.9476269916       16.2204021656
  O         1.9728746602        9.8443695707        9.5134981916
  O         6.5005134537        9.8764910896       17.6864717869
  O         3.0566532464        8.5618173844        4.7595007438
  O         7.7262402395        8.6169145893       12.8917488051
  O         1.5524191588        8.5588546732        6.8531268817
  O         6.3282006883        8.4643788276       15.0718799642
  P         1.5887169869        8.5802434208        5.2990029229
  P         6.3045095070        8.5926609219       13.4985711796
 Ca         8.2432469078        8.6140579369        4.1055695586
 Ca         3.4437305038        8.6682716529       12.4045565103
  O         5.5694425143        8.5584459090        6.1625720174
  O         0.8084882806        8.6091557178       14.5038079820
  O         8.1383801685        8.6608193566        6.3757793596
  O         3.3801284001        8.5856514529       14.6042363118
  P         6.7815730544        8.5882912841        7.1435113825
  P         2.0538870403        8.5971813598       15.4614546617
 Ca         2.6202859192        8.6057019849        2.2486810996
 Ca         7.0742012842        8.6064824426       10.2661954506
  O         0.8562401957        8.6369022725       11.4850858052
  O         5.5683821129        8.6430738600       19.7612435831
  O        18.6329971752        8.6386570796        9.1630761223
  O         4.3870315733        8.6194390758       17.3858499225
  P         1.1351311872        8.6200427192        9.9581705224
  P         5.6765508583        8.6093523193       18.2650696993
 Ca         3.5241203974        8.5880886992        7.9629582386
 Ca         8.2050043375        8.5902775687       16.4332744503
  O         1.6914429865       11.9988664514        7.5596319457
  O         6.3261448314       12.0249153535       15.6976534698
  O         3.0327450314       12.0825487368        5.3564871379
  O         7.7662364154       12.0536172620       13.5410816058
  P         3.0933362893       12.0157247758        6.9177501439
  P         7.7723262140       12.0381071601       15.0870672997
 Ca         5.9981840939       11.9939190927        8.1229315271
 Ca         1.0379366101       12.0395287123       16.2762048502
  O         8.6317352283       12.0398519496        5.9733111422
  O         3.8478365582       12.0753703028       14.3165914886
  O         6.0667991326       12.0307100727        5.8304415955
  O         1.2668613416       12.0771159827       14.0314844436
  P         7.3976507715       12.0365885954        4.9950699988
  P         2.6489514849       12.0702101182       13.3009747955
 Ca         2.1683758340       12.0865076940       10.2316215670
 Ca         7.0855620815       12.0337558987       18.1035289168
  O         3.8234305799       12.0034618278        0.7408709048
  O         8.5735334414       12.0772205784        8.9954595812
  O         4.8649227604       12.0277559694        3.1393190808
  O         9.6636134711       12.0015425512       11.3352572042
  P         3.6014539726       12.0294102200        2.2183225309
  P         8.3119323100       12.0420780328       10.5358271421
 Ca         1.1811173746       12.0435561563        4.0955504057
 Ca         5.7827110906       12.1016620992       12.5601568895
 Ca         4.6949879994        6.7782876309        4.7382789490
 Ca         0.0617857110        6.9029181127       13.0163556778
 Ca        -0.0351110075       10.3499453084        7.4657818570
 Ca         4.7251901789       10.1866689551       15.6701587513
 Ca        -0.0422870246       13.7607318530        7.5327083813
 Ca         4.6672031934       13.8578128311       15.7281040514
 Ca         4.6927663975       10.4114262985        4.7845684062
 Ca        -0.0089144914       10.2940800983       13.0066118897
  O         4.9703070587        7.6485671999        9.6319557871
  O         0.2393292960        7.7617741644       18.1562722826
  H         4.4864256266        7.4247018701       10.4701509495
  H        -0.0438339487        7.8519146038       19.0919314729
  O         4.2257972479       11.7818563324        9.5094493487
  O        -0.2508116768       11.1215454769       18.3374374880
  H         5.2792311810       10.6570436252       10.8294133036
  H         0.4927313413       11.2972374444       18.9494706021
  O         4.2329796837        5.5663004970       10.8373294283
  O        -0.2464748192        6.0038377980       18.3330218990
  H         4.9952355210        6.7307500338        9.3549910879
  H         0.5425203213        5.9315902030       18.8901037059
  O         4.8729483066        9.6979405270       10.8130744144
  O         0.2365140842        9.4662154973       18.1086286931
  H         4.2908987134        9.9412304764       10.0252196388
  H         0.1252336401        9.3327566629       19.0716963950
  O        10.2237481761        7.3575758605        4.8212542297
  O        14.8978453771        7.4109950380       12.8540261995
  O        16.1901738938        7.3906243066        8.1089569498
  O        11.5514867135        7.2532576986       16.2214919992
  O        11.0647016513        7.2564149035        9.4236335194
  O        15.9213047430        7.3060859592       17.6956469346
  O        13.3470942328       10.7638545103        7.4332881982
  O        17.9872028993       10.7816764499       15.5117465108
  O        16.8144946047       10.7203496470        4.1681247830
  O        11.9334673168       10.7145913245       12.5583936097
  O        12.1654332092       10.7793472671        2.7793572750
  O        16.8843373743       10.7980154823       10.9021357248
  O        13.3473675392       13.2369786316        7.4286436694
  O        17.9845502067       13.2913253621       15.5356256913
  O        16.8129343343       13.3491423720        4.1723120623
  O        12.0691427451       13.2682239400       12.3896539462
  O        12.1742240833       13.2914513981        2.7737335818
  O        16.9848929343       13.3244026290       10.9056935280
  O        10.2291978959        9.8451485133        4.8113620553
  O        14.9054179488        9.8546989705       13.0628302914
  O        16.2797585800        9.8816401174        7.9941531478
  O        11.5633987380        9.9383337936       16.2133283181
  O        11.3813613662        9.7565537281        9.5117012230
  O        15.9115075140        9.8719084854       17.6894828822
  O        12.4866045436        8.6071545566        4.7496317827
  O        17.1615443671        8.5806883079       12.8712883373
  O        11.0160326519        8.6196402968        6.8530118546
  O        15.7163258413        8.5239623391       15.0016370717
  P        11.0227782390        8.6020727416        5.3016600818
  P        15.7191013078        8.5962097082       13.4328350450
 Ca        17.6595894317        8.6024249085        4.0934653606
 Ca        12.7644648109        8.6537791081       12.3681611644
  O        14.9925638864        8.5748622818        6.1612011765
  O        10.2238903642        8.5918281546       14.5034879746
  O        17.5591526198        8.5464841549        6.3749977336
  O        12.8009147462        8.5704298133       14.5763520223
  P        16.2019444328        8.6047098018        7.1400230586
  P        11.4755037997        8.5937324985       15.4430766345
 Ca        12.0436948153        8.5980743378        2.2614337399
 Ca        16.7054153298        8.5051582157       10.2243871734
  O        10.2788041098        8.6122395898       11.4896724365
  O        14.9927772246        8.5914212334       19.7548819902
  O         9.1038820471        8.7227308117        9.1900919081
  O        13.8182956305        8.5732577045       17.3778625675
  P        10.4599669975        8.5798795662        9.9470570563
  P        15.1093153637        8.5884748546       18.2582428820
 Ca        12.9840608635        8.5636890918        8.0543866087
 Ca        17.6378167497        8.5835849396       16.4695102719
  O        11.0911369640       12.0183792917        7.5819294245
  O        15.7562898091       12.0090542530       15.7171367134
  O        12.4787375288       12.0000912542        5.4304080577
  O        17.1777384524       12.0643638542       13.5311165207
  P        12.5291697037       12.0021270943        6.9971222080
  P        17.1844545977       12.0398301855       15.0764822934
 Ca        15.3666077671       11.9707733125        8.1397505906
 Ca        10.4700110530       12.0363002430       16.2810446009
  O        18.0563806863       12.0266484067        5.9695287343
  O        13.2644951160       12.0685311945       14.3083596903
  O        15.4790557679       12.0170017786        5.8212462975
  O        10.6677131001       12.0967802361       14.0919176828
  P        16.8251366901       12.0338233485        4.9972352851
  P        12.0304055711       12.0458345420       13.3353425944
 Ca        11.4946570516       12.1050278111       10.1190352120
 Ca        16.5144072029       12.0388926831       18.1079408290
  O        13.2494292569       12.0014308701        0.7416513815
  O        18.0157454300       12.0129575912        8.9606101296
  O        14.2882287147       12.0226755925        3.1367315927
  O         0.2045991371       11.9956514865       11.3108086815
  P        13.0213366526       12.0273014199        2.2172769270
  P        17.7185743570       12.0435339656       10.4898895795
 Ca        10.6047687710       12.0321671025        4.1119890696
 Ca        15.1490838021       12.0511279604       12.3900518889
 Ca        14.0930042199        6.7800453181        4.7562468288
 Ca         9.4471734737        6.9065711762       12.9630302541
 Ca         9.3777205646       10.3600476725        7.4991217967
 Ca        14.0981227740       10.1969979646       15.6552981822
 Ca         9.3561950881       13.7382304779        7.4952060985
 Ca        14.0967342616       13.8660257949       15.7140110862
 Ca        14.1285452402       10.3992875956        4.7464667627
 Ca         9.4559923863       10.2964760224       12.9728605073
  O        13.6802768334        7.5474572350       10.0094854119
  O         9.6285598622        7.7281758408       18.1475908277
  H        14.2928221353        7.7641027557       10.7886467512
  H         9.4238613826        7.8261791300       19.0947229332
  O        13.5582790685       11.5427861675       10.5077786123
  O         9.2042805011       11.1167545889       18.3623215255
  H        15.0518906220       10.4530010787       10.3905977432
  H         9.9956457753       11.2298537318       18.8955988410
  O        14.1449727669        5.1575134052       10.6390459161
  O         9.1869320774        6.0932137647       18.3835778297
  H        13.7626076780        6.5428869820       10.0884447931
  H        10.0086522873        5.9613357281       18.8905734152
  O        14.7842635746        9.5649624859       10.1075662343
  O         9.6611151222        9.4461367449       18.1514563137
  H        13.8243136495        9.7612822517       10.2258255003
  H         9.3518346583        9.3859835276       19.0763564744
  O         8.2547528284        6.8157040740       25.4910454091
  C         9.3426998656        7.2949178706       25.4465836168
  O        10.4361296837        7.7941588589       25.4018107325
     387
 i =       29, E =     -6921.7929842425
  O         0.8038952790        0.4903991695        4.8296005036
  O         5.4870506809        0.5766943136       12.9347394444
  O         6.7473964673        0.4747795468        8.1060615019
  O         2.1009006131        0.3826319648       16.2303010716
  O         1.5740924596        0.3958373712        9.3895110322
  O         6.4850549037        0.4216216972       17.7112912708
  O         3.9248045519        3.9025658855        7.5397306101
  O         8.5419900721        3.9111555514       15.5039872793
  O         7.4089191012        3.8313602551        4.1417241081
  O         2.6397448364        3.9671101624       12.3441452031
  O         2.7465765477        3.9046625686        2.7802956031
  O         7.7051197106        3.8665914652       10.9929647256
  O         3.9362135872        6.3990637245        7.4026803920
  O         8.5617769029        6.4096076571       15.5574510256
  O         7.3969775054        6.4792116723        4.1683278095
  O         2.5618509300        6.4968415189       12.4502092170
  O         2.7544498244        6.4071728064        2.7749887628
  O         7.5582591133        6.4037178777       10.9080608759
  O         0.7907541945        2.9701187851        4.8253908300
  O         5.5099126925        3.0635512036       13.3628110564
  O         6.7495439233        2.9578274723        8.1210174082
  O         2.1577580453        3.0674626411       16.1999959115
  O         1.9808840135        2.8745442239        9.5149202369
  O         6.5119449832        2.9770360922       17.6997162762
  O         3.0596089257        1.7491244827        4.7495418826
  O         7.7162601124        1.7692685851       12.9374796839
  O         1.6093931101        1.7563267953        6.8625072796
  O         6.3421956935        1.5522682656       15.0906767971
  P         1.6010672061        1.7338414253        5.3071728861
  P         6.3042197839        1.7504526521       13.5489842910
 Ca         8.2321514175        1.7065594474        4.0975083016
 Ca         3.4355899390        1.7783988887       12.3711488679
  O         5.5548928106        1.7508528903        6.1890103660
  O         0.7891587045        1.7465608345       14.5057226559
  O         8.0948993536        1.7489010109        6.4003534343
  O         3.3685141394        1.6738271662       14.5808449995
  P         6.7464076197        1.7253511399        7.1814663373
  P         2.0468034411        1.7204467148       15.4465798548
 Ca         2.6303186323        1.7108510777        2.2522601826
 Ca         7.1125115548        1.7651895858       10.2648619717
  O         0.8689546744        1.7383722843       11.5065054497
  O         5.5666466552        1.7287439879       19.7514353640
  O        18.4955634643        1.9203042845        9.2554839696
  O         4.4081036054        1.7019653988       17.3719178794
  P         1.0192192779        1.7220000031        9.9589649943
  P         5.6918509355        1.7106238530       18.2708886139
 Ca         3.5621917379        1.6822756547        8.0520376138
 Ca         8.2123591182        1.7212278463       16.4513394961
  O         1.6868867054        5.1362715015        7.6301446995
  O         6.3265644377        5.1819061848       15.7302296728
  O         3.0603257119        5.1096913796        5.4810820603
  O         7.7322583759        5.2031312259       13.5225267313
  P         3.1291794561        5.1266093741        7.0441569367
  P         7.7517947506        5.1781587604       15.0731136649
 Ca         6.2648202498        5.1524390662        7.8851582376
 Ca         1.0382322507        5.1372579758       16.3016523300
  O         8.5951174463        5.1431460779        5.9875252180
  O         3.8385893313        5.1938469061       14.2669199821
  O         6.0374070282        5.1215283082        5.7135702957
  O         1.2516834848        5.1262297408       14.0498602125
  P         7.4143651638        5.1474687312        4.9462295509
  P         2.6249076503        5.1928416510       13.2936989337
 Ca         2.1242530242        5.1322380471       10.1428509420
 Ca         7.0822842826        5.1576278389       18.0773741860
  O         3.8198156597        5.1234722251        0.7455541644
  O         8.5624788305        5.1186590933        8.9392816479
  O         4.8698176125        5.1452694038        3.1307127139
  O         9.7558588514        5.2461961780       11.2277384041
  P         3.6028687762        5.1490875024        2.2051882750
  P         8.3889033045        5.1670428429       10.4924982462
 Ca         1.1975428765        5.1494321806        4.1026782021
 Ca         5.8065384483        5.0797336768       12.2598698586
 Ca         4.7005938786       -0.0898106369        4.7686595402
 Ca        -0.0336110402        0.0510675639       12.9655544043
 Ca        -0.0327397518        3.4514512443        7.4517677723
 Ca         4.7141378681        3.3212216317       15.6276884742
 Ca        -0.0177655769        6.8586549575        7.4625935525
 Ca         4.6701456152        6.9582698337       15.7210509970
 Ca         4.7052519049        3.4969948566        4.6947408521
 Ca        -0.0070142863        3.4170728834       12.9943614956
  O         4.0780096131        0.4614677722        9.9298512795
  O        -0.2026859714        0.8671579898       18.3044723819
  H         4.8513447070        0.4817997844       10.5422395074
  H         0.3519034447        0.9935037500       19.0799508264
  O         5.1901714743        5.0004002581        9.8325179013
  O        -0.2073699377        4.2040890592       18.3171323214
  H         5.0481854606        3.9486482443        9.9561813509
  H         0.5109721872        4.3229593831       18.9452672716
  O         5.4136435105       12.0169885267       10.3922448256
  O        -0.2005261085       12.9746870432       18.3096893803
  H         4.1404509650       13.2455392301        9.5893011847
  H         0.5345090468       12.8422296505       18.9500181701
  O         4.9877849070        2.7159399943       10.7027522564
  O         0.4551126675        2.5349114741       18.2276757415
  H         4.0917932409        2.6476919655       10.2961314385
  H        -0.1340624896        2.5159916671       18.9908422710
  O        10.2053985116        0.4635469921        4.7821437833
  O        14.9107755099        0.5519249483       12.9457872498
  O        16.3251377781        0.3560521680        7.9608793004
  O        11.5363831572        0.3812713014       16.2241698774
  O        11.3141123009        0.5240262151        9.4950574052
  O        15.8269934399        0.3910480729       17.7054805141
  O        13.3415584075        3.8168131980        7.1187339329
  O        17.9771172617        3.9105773633       15.5169170664
  O        16.8485992608        3.8481191440        4.1096598612
  O        12.0897947382        3.9624142838       12.3790285192
  O        12.1706428930        3.9023557392        2.7794575319
  O        16.8762860350        3.9073964065       10.9186183376
  O        13.3496389397        6.3855317701        7.3251810742
  O        17.9910633927        6.4133673559       15.5633597830
  O        16.8269724790        6.4760992443        4.1422128986
  O        12.0855055511        6.4866484936       12.4625482246
  O        12.1750001523        6.4090764567        2.7672290832
  O        16.8943110660        6.4069337131       10.9026254835
  O        10.2243372715        2.9643336772        4.8123836931
  O        14.9288641762        3.0634882697       13.2682045063
  O        16.1643557019        2.8854434387        8.0915207330
  O        11.5383145581        3.0685982861       16.2218704308
  O        11.3192134031        2.9946618780        9.4904101397
  O        15.9562816230        2.9710929461       17.6954517203
  O        12.4735527316        1.6813639903        4.7642682154
  O        17.1330743498        1.7630983503       12.8840172050
  O        10.9157542833        1.6763720717        6.8233217335
  O        15.7580651471        1.6275529929       15.0732426831
  P        10.9953329276        1.7023904222        5.2709074254
  P        15.7161753960        1.7491263980       13.5133192741
 Ca        17.6649870970        1.7144807231        4.0984157206
 Ca        12.7400582309        1.7120993643       12.4073928139
  O        15.0208928989        1.6650221904        6.1330317856
  O        10.2444258982        1.7438239560       14.4808265961
  O        17.5776272082        1.7560680077        6.3799089035
  O        12.8060518157        1.7117318904       14.6058883518
  P        16.2133524120        1.6610972779        7.1358103881
  P        11.4695197314        1.7267804014       15.4574126103
 Ca        12.0468050434        1.7199867818        2.2448925617
 Ca        16.4176495036        1.7396207306       10.2666087905
  O        10.2910156206        1.7550527883       11.4875287061
  O        14.9950309131        1.7616994880       19.7487012761
  O         9.1652528214        1.7572181214        9.1824949243
  O        13.8245272889        1.7694822313       17.3714666840
  P        10.5174254308        1.7648025590        9.9547986982
  P        15.1065202118        1.7149604610       18.2694874784
 Ca        12.8823164343        1.7516964974        7.9098292125
 Ca        17.6632409221        1.7583796370       16.4549909211
  O        11.1436036381        5.1115559892        7.5483197172
  O        15.7581618166        5.1767366384       15.7114696982
  O        12.4588636301        5.2091305415        5.3582122699
  O        17.1997843064        5.1991958281       13.5370008344
  P        12.5449816354        5.1333680144        6.9144109823
  P        17.1929858020        5.1772712571       15.0900425250
 Ca        15.5454668908        5.1473815567        8.0416981127
 Ca        10.4606538676        5.1553841474       16.2757318509
  O        18.0132965357        5.1659351372        5.9791633579
  O        13.2632049231        5.1827977667       14.3294641208
  O        15.4727574735        5.1308591148        5.7489615329
  O        10.6862492306        5.1490315989       14.0354588015
  P        16.8252407043        5.1534841234        4.9407520606
  P        12.0709739323        5.1935096290       13.3187556538
 Ca        11.8278850491        5.1569872145       10.2064059680
 Ca        16.5070398166        5.1395080214       18.1042384591
  O        13.2416048279        5.1239820285        0.7453963162
  O        17.9989586303        5.1306652850        8.9673881195
  O        14.2936656198        5.1498171643        3.1336030943
  O         0.1752033497        5.1816297622       11.3043872915
  P        13.0308266334        5.1499194337        2.2074054415
  P        17.6865665262        5.1409716647       10.4998615879
 Ca        10.6138379056        5.1649388348        4.1006186164
 Ca        15.2812955762        5.2061029014       12.4763284615
 Ca        14.1327576328       -0.1103741034        4.7482436696
 Ca         9.3940697837        0.0372882024       12.9464611926
 Ca         9.4400036230        3.4569038673        7.5074242393
 Ca        14.1347091829        3.3253561473       15.6538742076
 Ca         9.4361967393        6.8776167343        7.5591007125
 Ca        14.0700093456        6.9652873672       15.7323390974
 Ca        14.0882297393        3.5181748463        4.7676454907
 Ca         9.3818623037        3.4559773967       12.9247469631
  O        14.3046377279        0.9795010038        9.4701573806
  O         9.6174372826        0.8521027170       18.1563390379
  H        13.8573131758        0.5872984933       10.2762395994
  H         9.3493921347        0.9178761159       19.0833307971
  O        13.7901930142        4.5174365157        9.3202503204
  O         9.2435220947        4.1935209132       18.3255417453
  H        14.2280152405        3.6221264066       11.2342141248
  H         9.9461569538        4.3572041242       18.9511502347
  O        14.3954272061       12.7428468137       10.3622245994
  O         9.2451774502       12.9948265221       18.3340097873
  H        14.5345283346       13.7731994904        9.2615601499
  H         9.9999874567       12.8597888048       18.9124239163
  O        14.2016106043        2.6807488109       10.9029417088
  O         9.7096902615        2.6039558746       18.1535916251
  H        13.9619565148        3.0299980586        9.9828043213
  H         9.4290015368        2.5081197874       19.0571360990
  O         0.7851507027        7.3404700128        4.8155910474
  O         5.4781168605        7.4164882801       12.9347442745
  O         6.9092505467        7.3080439036        8.0060381953
  O         2.1122467691        7.2486910963       16.2207528231
  O         1.8925354170        7.3490067416        9.5058288932
  O         6.4485936912        7.3132645746       17.7121837991
  O         3.8662589012       10.7036207782        7.1618438185
  O         8.5570986536       10.7800946469       15.5359320023
  O         7.3908061582       10.7295667814        4.1720898780
  O         2.6675940449       10.8376316475       12.3802249110
  O         2.7441830032       10.7816060373        2.7787631052
  O         7.5862792574       10.7679357503       10.9671505802
  O         3.9143891486       13.2770332229        7.2827155134
  O         8.5554636099       13.2876941486       15.5657600896
  O         7.3871240171       13.3535350903        4.1810655308
  O         2.6745438940       13.3097379952       12.3710899535
  O         2.7500731927       13.2874657419        2.7633080165
  O         7.6111061465       13.3537049997       10.9893075059
  O         0.8025871979        9.8320195480        4.8273524096
  O         5.5150437587        9.9183041044       13.2930884598
  O         6.7226933917        9.7919273760        8.1042910003
  O         2.1180616382        9.9469313114       16.2161446807
  O         1.9866486146        9.8423990504        9.5087783262
  O         6.5090246194        9.8686528635       17.6899872454
  O         3.0515855564        8.5594221354        4.7600903273
  O         7.7262309241        8.6271164484       12.8889125670
  O         1.5543403234        8.5604727694        6.8559119726
  O         6.3393118720        8.4554849911       15.0713199123
  P         1.5844866289        8.5780694466        5.2981087337
  P         6.3076903869        8.5966928393       13.5114839917
 Ca         8.2422743891        8.6139408811        4.0978895881
 Ca         3.4438326607        8.6605200044       12.4051295598
  O         5.5831961935        8.5578385879        6.1506132213
  O         0.8048598502        8.6144351704       14.5035283736
  O         8.1454968966        8.6610740972        6.3764237025
  O         3.3805262661        8.5819041054       14.6033757462
  P         6.7894300446        8.5817295990        7.1358016654
  P         2.0511271245        8.5989469016       15.4621228855
 Ca         2.6277686120        8.6058449835        2.2441540045
 Ca         7.0659241354        8.6053554552       10.2771017710
  O         0.8590328229        8.6415344805       11.4749886662
  O         5.5694314482        8.6425164939       19.7537068891
  O        18.6424551098        8.6396531707        9.1623142741
  O         4.3983345003        8.6280207350       17.3766114642
  P         1.1432711522        8.6240974087        9.9542561784
  P         5.6813879384        8.6110635831       18.2724018253
 Ca         3.5280711056        8.5927647638        7.9640731170
 Ca         8.2061481427        8.5897195443       16.4485858864
  O         1.6967911031       12.0013996891        7.5515781330
  O         6.3217297767       12.0232631833       15.6955421449
  O         3.0244020320       12.0843424502        5.3351333725
  O         7.7645214395       12.0610993880       13.5419072278
  P         3.0890311681       12.0198987942        6.8971717564
  P         7.7711362565       12.0389305800       15.0937013626
 Ca         6.0123272189       11.9933856371        8.0939090614
 Ca         1.0390298029       12.0351884901       16.2806957223
  O         8.6269262212       12.0417159434        5.9784995136
  O         3.8372959206       12.0806105088       14.3244615047
  O         6.0669676321       12.0278501053        5.8291501503
  O         1.2587081461       12.0765333458       14.0240897624
  P         7.3979459971       12.0367473605        4.9932660891
  P         2.6434071843       12.0762772612       13.3095194951
 Ca         2.1620151379       12.0804483550       10.2396748670
 Ca         7.0895136049       12.0318802092       18.0870010333
  O         3.8201754330       11.9997103943        0.7486018798
  O         8.5790866894       12.0711961274        9.0028928294
  O         4.8700296588       12.0250450625        3.1425575379
  O         9.6649357752       12.0121415901       11.3285167310
  P         3.6064421682       12.0272359844        2.2119043480
  P         8.3132183287       12.0488332621       10.5417407379
 Ca         1.1718173495       12.0441946864        4.0890744042
 Ca         5.7733962229       12.1109838020       12.5548536043
 Ca         4.6888697731        6.7772075789        4.7318430379
 Ca         0.0611385507        6.9085801966       13.0213508644
 Ca        -0.0391243786       10.3501964087        7.4581501701
 Ca         4.7332650735       10.1806750438       15.6697235862
 Ca        -0.0451041260       13.7572513971        7.5339199378
 Ca         4.6639875758       13.8526720404       15.7468391657
 Ca         4.6879937489       10.4059466217        4.7776413683
 Ca        -0.0158252525       10.2954355880       13.0111863820
  O         4.9465134530        7.6529900245        9.6306031186
  O         0.2633330615        7.8067836273       18.1648900371
  H         4.5001333969        7.4036647873       10.4684903409
  H        -0.0724264170        7.8179618534       19.0806611977
  O         4.2126701993       11.7697864959        9.5021111828
  O        -0.2512318356       11.1378992854       18.3675512454
  H         5.2688885832       10.6595065068       10.8035352266
  H         0.4913307845       11.2760406467       18.9609025216
  O         4.2220180427        5.5730813828       10.8387528322
  O        -0.2509213927        6.0152556701       18.3571015203
  H         4.9845250030        6.7205566287        9.3363638910
  H         0.5434012256        5.9511920092       18.9021781509
  O         4.8630110483        9.6915850919       10.8126464007
  O         0.2656803136        9.4053198141       18.1200405759
  H         4.2974828858        9.9780077129       10.0390285078
  H         0.1070605497        9.3515351772       19.0612572708
  O        10.2204977820        7.3610198946        4.8240184191
  O        14.8962119308        7.4219291188       12.8420515683
  O        16.1822714161        7.3969509178        8.1113706164
  O        11.5412100537        7.2526056766       16.2205611011
  O        11.0631100788        7.2499957779        9.4081098261
  O        15.9296822224        7.3096393553       17.7013188514
  O        13.3454519572       10.7599331950        7.4346817509
  O        17.9843231357       10.7815763327       15.5132676441
  O        16.8145043457       10.7190107062        4.1730657200
  O        11.9243091442       10.7151201578       12.5559681268
  O        12.1673983646       10.7832786726        2.7806458237
  O        16.8721741620       10.8065916291       10.9040586463
  O        13.3436684813       13.2362266499        7.4270149790
  O        17.9790573481       13.2896500337       15.5546020849
  O        16.8116871668       13.3468343347        4.1786806109
  O        12.0670990476       13.2571572669       12.3787332446
  O        12.1781068502       13.2861474998        2.7734912998
  O        16.9865356911       13.3292386790       10.9099245856
  O        10.2238494651        9.8429537889        4.8109698678
  O        14.9062658436        9.8682765770       13.0611801071
  O        16.2925221299        9.8871311400        7.9820450372
  O        11.5552658058        9.9376950874       16.2084982792
  O        11.3998891318        9.7506486867        9.5116381281
  O        15.9144074123        9.8621414517       17.6939564076
  O        12.4818030830        8.6096331471        4.7528481065
  O        17.1636198792        8.5786591444       12.8641726772
  O        11.0092190354        8.6257672972        6.8590128734
  O        15.7179913934        8.5173756089       14.9951442958
  P        11.0190900170        8.6034391843        5.3034525535
  P        15.7184702557        8.6049878145       13.4317839557
 Ca        17.6578515776        8.6015175324        4.0855691251
 Ca        12.7473112510        8.6527706317       12.3897858982
  O        14.9982319257        8.5690517738        6.1500820909
  O        10.2229754898        8.5887194968       14.4990690975
  O        17.5671654126        8.5389718479        6.3687394449
  O        12.7997423425        8.5627913327       14.5850355487
  P        16.2072429805        8.6057673624        7.1317105937
  P        11.4715602241        8.5915691499       15.4458261852
 Ca        12.0498600843        8.5978250114        2.2560619560
 Ca        16.7394451685        8.5078445555       10.2309833472
  O        10.2804161181        8.6084930852       11.4792242899
  O        14.9936081396        8.5877924392       19.7468776249
  O         9.1107465055        8.7329834507        9.1875834872
  O        13.8313599422        8.5698004160       17.3686239952
  P        10.4696506554        8.5791247293        9.9399678143
  P        15.1178236285        8.5881467590       18.2673143189
 Ca        12.9835865900        8.5591161263        8.0516539911
 Ca        17.6375865782        8.5795173926       16.4909782064
  O        11.0920958945       12.0127128091        7.5839854167
  O        15.7542311344       12.0050854658       15.7184413171
  O        12.4774328148       12.0013644525        5.4266692586
  O        17.1697437885       12.0700041057       13.5288098740
  P        12.5270444223       11.9975445940        6.9901668380
  P        17.1840243425       12.0403283168       15.0813696376
 Ca        15.3579399077       11.9645479601        8.1542722197
 Ca        10.4718975506       12.0372036575       16.3033963243
  O        18.0552801562       12.0251838623        5.9695963439
  O        13.2540154272       12.0657758754       14.3148963894
  O        15.4780207651       12.0097708977        5.8267657724
  O        10.6615298055       12.0988156199       14.0910698394
  P        16.8218109039       12.0309565344        5.0011819344
  P        12.0220923634       12.0440113512       13.3462963051
 Ca        11.5120396794       12.0933612907       10.1065984556
 Ca        16.5136565934       12.0359187678       18.0887936691
  O        13.2454666802       11.9999954709        0.7484318082
  O        18.0159885218       12.0021604000        8.9591331146
  O        14.2934924172       12.0186453395        3.1368720671
  O         0.2057724161       11.9954230038       11.3041355462
  P        13.0262012998       12.0255692258        2.2090137982
  P        17.7148043554       12.0412143972       10.4894000134
 Ca        10.6042149346       12.0295286832        4.1071428869
 Ca        15.1358400182       12.0788456917       12.3761272572
 Ca        14.0921453037        6.7826923651        4.7481907279
 Ca         9.4362513644        6.9077597245       12.9660555180
 Ca         9.3774791568       10.3579943538        7.4899750561
 Ca        14.1041021265       10.1919753452       15.6584264136
 Ca         9.3532851086       13.7442303943        7.4918355847
 Ca        14.1002668463       13.8686585043       15.7298475791
 Ca        14.1318897172       10.3944003493        4.7393927911
 Ca         9.4436497663       10.2930632548       12.9833322981
  O        13.6737512839        7.5401827920       10.0372890438
  O         9.6607096610        7.7483951098       18.1645719083
  H        14.3256648924        7.7740431109       10.7767752704
  H         9.4005327965        7.7928010692       19.0808168798
  O        13.5897083429       11.5339556506       10.5071936384
  O         9.1933143388       11.1093423385       18.3853880062
  H        15.0338856213       10.4475712452       10.4045895594
  H         9.9970474174       11.2039494690       18.9095598491
  O        14.1437383442        5.1244470434       10.6369807109
  O         9.1816938790        6.0903445707       18.4099942074
  H        13.7601156197        6.5327940140       10.1330603941
  H        10.0047399293        5.9842749772       18.8975217038
  O        14.7731924968        9.5514115402       10.1066749593
  O         9.6861492614        9.4276424994       18.1650684070
  H        13.8293715185        9.7968778819       10.2057758917
  H         9.3263837286        9.4230831421       19.0580039374
  O         8.2736316419        6.8179733954       25.4850416424
  C         9.3393402961        7.2964117314       25.4497424243
  O        10.4270563805        7.7890868360       25.4016449676
     387
 i =       30, E =     -6921.8325814128
  O         0.8037640725        0.4941219488        4.8270949745
  O         5.4849985840        0.5961160980       12.9355941038
  O         6.7484401336        0.4742554265        8.1035575829
  O         2.0946905901        0.3834477901       16.2330800691
  O         1.5441888825        0.3794659906        9.3864843909
  O         6.4906659435        0.4212891745       17.7169928774
  O         3.9273456119        3.8973007455        7.5276482828
  O         8.5336063373        3.9103164844       15.5038761411
  O         7.4201368629        3.8296404299        4.1281684755
  O         2.6277077927        3.9647057999       12.3630019300
  O         2.7479159949        3.9047805373        2.7791922338
  O         7.6992634008        3.8746574011       10.9892099461
  O         3.9367988782        6.4040760024        7.3925192656
  O         8.5533826812        6.4062554158       15.5778813184
  O         7.4034304222        6.4823562454        4.1648459250
  O         2.5572935348        6.4953656568       12.4472273909
  O         2.7571196246        6.4047088818        2.7716253512
  O         7.5630533603        6.4018489550       10.9074623495
  O         0.7881145444        2.9712717267        4.8252358184
  O         5.5136827610        3.0686088564       13.3779599782
  O         6.7489272225        2.9544768198        8.1236073548
  O         2.1573310157        3.0669097277       16.1977188882
  O         1.9973936982        2.8629487463        9.5210827978
  O         6.5219042654        2.9708118223       17.7019755421
  O         3.0555607091        1.7521095749        4.7478817661
  O         7.7174195587        1.7783852632       12.9448626279
  O         1.6042259406        1.7562843626        6.8623913428
  O         6.3571711863        1.5314883045       15.0935315698
  P         1.5984510194        1.7365848919        5.3088681054
  P         6.3049895694        1.7524434006       13.5617025617
 Ca         8.2265635267        1.7068941911        4.0910153264
 Ca         3.4192447591        1.7842669780       12.3825930761
  O         5.5573231744        1.7520942654        6.1851501918
  O         0.7895723993        1.7493217349       14.5074085900
  O         8.0923194929        1.7492323239        6.3960902473
  O         3.3767074409        1.6740001721       14.5900575475
  P         6.7457261013        1.7246694832        7.1820548659
  P         2.0465055302        1.7201668064       15.4490845821
 Ca         2.6430868598        1.7093532088        2.2504625946
 Ca         7.1145489876        1.7690489825       10.2722237392
  O         0.8744166723        1.7327875008       11.4992902965
  O         5.5664418547        1.7330351532       19.7500864577
  O        18.5007049583        1.9434364919        9.2571819010
  O         4.4174165421        1.6996685267       17.3686153119
  P         1.0216331097        1.7219620300        9.9552185967
  P         5.6973340185        1.7081967202       18.2669608424
 Ca         3.5553735781        1.6815102637        8.0393539396
 Ca         8.2146720113        1.7220695631       16.4627428822
  O         1.6927215407        5.1327869743        7.6292396773
  O         6.3257729813        5.1860906605       15.7316007755
  O         3.0587621461        5.1077632725        5.4814223098
  O         7.7243788102        5.2036472328       13.5279674341
  P         3.1349298084        5.1253386498        7.0428264749
  P         7.7476932764        5.1796489366       15.0749290226
 Ca         6.2728263878        5.1480032834        7.8883572546
 Ca         1.0431631278        5.1389861945       16.3121146076
  O         8.5790064194        5.1370558060        5.9893616722
  O         3.8308959682        5.2034030356       14.2704501888
  O         6.0308863716        5.1208528334        5.6999529912
  O         1.2487085364        5.1291459330       14.0525186554
  P         7.4113301141        5.1449539013        4.9377321147
  P         2.6201814304        5.1973025386       13.2990930845
 Ca         2.1538954308        5.1333023777       10.1500070467
 Ca         7.0889907597        5.1596565667       18.0571794700
  O         3.8173665174        5.1214399813        0.7383750246
  O         8.5658515009        5.1240427943        8.9326183393
  O         4.8722732576        5.1411621711        3.1204251461
  O         9.7534603190        5.2484432357       11.2212072496
  P         3.6043241193        5.1472752504        2.2136197925
  P         8.3921689324        5.1700081577       10.4835123663
 Ca         1.2008115069        5.1484132078        4.1058064352
 Ca         5.8416190815        5.0709035231       12.2547270160
 Ca         4.6972319258       -0.0847298103        4.7628319679
 Ca        -0.0497099384        0.0504868778       12.9613835342
 Ca        -0.0330138196        3.4557347626        7.4451662437
 Ca         4.7162978609        3.3218802063       15.6314525412
 Ca        -0.0101011516        6.8517829684        7.4617887351
 Ca         4.6668410396        6.9591011679       15.7291097319
 Ca         4.6978821610        3.4937218569        4.6839218548
 Ca        -0.0163287590        3.4213638063       12.9961580158
  O         4.0924120135        0.4618800720        9.9300468731
  O        -0.1965694525        0.8475928253       18.3180236769
  H         4.8460090495        0.4614257149       10.4993354908
  H         0.3792678468        0.9943478397       19.0860339351
  O         5.1586713789        5.0110873120        9.7952308346
  O        -0.1915167779        4.1720891455       18.3206173639
  H         5.0964596007        3.9456847882       10.0257677930
  H         0.5118288002        4.2991319496       18.9662931176
  O         5.4090491925       11.9987866855       10.3999141591
  O        -0.2064827344       13.0035038740       18.3294420353
  H         4.1200645581       13.2263475240        9.6309740907
  H         0.5194705178       12.8707635264       18.9560431356
  O         4.9569793310        2.7694340693       10.6627338255
  O         0.4797623101        2.5413147463       18.2479053237
  H         4.0831878349        2.6459796270       10.2793921984
  H        -0.1693420647        2.5342273577       18.9898802331
  O        10.1971820544        0.4647663902        4.7565021078
  O        14.9080911270        0.5687075910       12.9524242868
  O        16.3382881253        0.3488168466        7.9431887533
  O        11.5333325307        0.3829829325       16.2226390192
  O        11.3151986495        0.5288728650        9.4945498781
  O        15.8248344455        0.3907790593       17.7094611520
  O        13.3476483387        3.8266805989        7.0860091241
  O        17.9692996666        3.9109907549       15.5210549966
  O        16.8617152833        3.8536724629        4.0945794087
  O        12.0880447401        3.9641673171       12.3882080830
  O        12.1717368892        3.9013819119        2.7791612547
  O        16.8675396580        3.9121489295       10.9150310473
  O        13.3591799751        6.3852196827        7.3114183916
  O        17.9833983775        6.4123564124       15.5844249668
  O        16.8278035232        6.4748598859        4.1344667038
  O        12.0882879384        6.4783035390       12.4585128005
  O        12.1779791169        6.4069273267        2.7622277573
  O        16.8772882221        6.3977718102       10.9000010754
  O        10.2195409447        2.9622769982        4.8048713482
  O        14.9361513029        3.0786078861       13.3065087944
  O        16.1599637755        2.8806305325        8.0821667051
  O        11.5355449173        3.0673807111       16.2183630749
  O        11.3151511417        2.9988054625        9.4866021540
  O        15.9579217629        2.9650062898       17.6987038327
  O        12.4650674848        1.6756658935        4.7680754718
  O        17.1266926650        1.7680307503       12.8798226902
  O        10.9033999785        1.6769323491        6.8200943029
  O        15.7799436127        1.6080920096       15.0764761801
  P        10.9846946798        1.6983806706        5.2690145209
  P        15.7162262296        1.7603764436       13.5288829263
 Ca        17.6649562397        1.7135590142        4.0985794355
 Ca        12.7366422871        1.7100521204       12.4083559350
  O        15.0250639579        1.6622138310        6.1297484123
  O        10.2392349800        1.7469060610       14.4766838415
  O        17.5889058767        1.7523354352        6.3800938061
  O        12.8068573370        1.7065434636       14.6034330220
  P        16.2199855479        1.6599307213        7.1300915979
  P        11.4688552963        1.7279617339       15.4519518388
 Ca        12.0561200229        1.7191362122        2.2379260627
 Ca        16.4158378419        1.7426770447       10.2745972675
  O        10.2906194006        1.7581639538       11.4829646054
  O        14.9931829777        1.7597059449       19.7498258587
  O         9.1602140984        1.7600057209        9.1795276803
  O        13.8314112501        1.7671138327       17.3673511463
  P        10.5156204313        1.7686523711        9.9524207084
  P        15.1112689119        1.7114449085       18.2654109186
 Ca        12.8886813890        1.7580807819        7.9007262760
 Ca        17.6622247331        1.7644250309       16.4669979413
  O        11.1495762602        5.1125580441        7.5391081702
  O        15.7576912153        5.1840946734       15.7130516011
  O        12.4487206297        5.2204623231        5.3309552465
  O        17.2010068300        5.2001602555       13.5424116782
  P        12.5484538798        5.1401050216        6.8917370261
  P        17.1921682674        5.1812851215       15.0935190977
 Ca        15.5189603509        5.1324288985        8.0651489566
 Ca        10.4608068199        5.1534503670       16.2883577481
  O        18.0029458144        5.1671440633        5.9776129157
  O        13.2501882635        5.1973442570       14.3459289114
  O        15.4759812899        5.1264310495        5.7503102597
  O        10.6727127189        5.1558038388       14.0287913214
  P        16.8204047816        5.1529414186        4.9374052365
  P        12.0666526126        5.1978680318       13.3251703039
 Ca        11.8035008676        5.1476036411       10.2199291142
 Ca        16.4954993979        5.1399890576       18.0859891388
  O        13.2384699667        5.1195023574        0.7397326011
  O        17.9896250881        5.1329223890        8.9637671620
  O        14.2959620126        5.1449566260        3.1264933890
  O         0.1795761805        5.1790765286       11.2955361309
  P        13.0330144752        5.1474575094        2.2172469151
  P        17.6839218735        5.1403939694       10.4986378998
 Ca        10.6086272137        5.1677763646        4.0901345513
 Ca        15.2843534225        5.2145791904       12.4847544010
 Ca        14.1376474916       -0.1154413053        4.7448387517
 Ca         9.3852030469        0.0467744250       12.9547913879
 Ca         9.4472867696        3.4557847506        7.5044616239
 Ca        14.1438730804        3.3227051795       15.6494069883
 Ca         9.4413696352        6.8791577178        7.5585647614
 Ca        14.0729372783        6.9672111564       15.7456728796
 Ca        14.0863664831        3.5156925903        4.7613095395
 Ca         9.3814332413        3.4626869206       12.9289409285
  O        14.3065994474        0.9792050274        9.4687755251
  O         9.6551798757        0.8362084058       18.1775225240
  H        13.8649251653        0.6201197989       10.2492426796
  H         9.3135957377        0.8998832763       19.0730313882
  O        13.7587770647        4.4907904454        9.3029445812
  O         9.2414554656        4.2084356101       18.3327049017
  H        14.2075092829        3.6203343330       11.2610747373
  H         9.9569199874        4.3446598525       18.9770958355
  O        14.4367037226       12.7142477429       10.2910920677
  O         9.2540262943       12.9930821939       18.3531690807
  H        14.5263694810       13.7919177363        9.2281368860
  H        10.0061958518       12.8764289508       18.9326223721
  O        14.2179282671        2.6957904219       10.9021830984
  O         9.7599561102        2.6065280448       18.1579475331
  H        13.9702608077        3.0578082106       10.0067992798
  H         9.3969653404        2.5260507382       19.0681410141
  O         0.7831974406        7.3392230340        4.8136401234
  O         5.4836629456        7.4217775917       12.9364271194
  O         6.9260248430        7.3039121627        8.0027942503
  O         2.1084389479        7.2523402857       16.2197440001
  O         1.8943457028        7.3460872550        9.5045180544
  O         6.4454904500        7.3152486697       17.7153627768
  O         3.8662948072       10.7061611564        7.1377515019
  O         8.5497942373       10.7811566864       15.5498787022
  O         7.3921834501       10.7291362145        4.1722637292
  O         2.6699509687       10.8490400651       12.3790495999
  O         2.7452243407       10.7809196495        2.7778268513
  O         7.5904565626       10.7720837570       10.9940806776
  O         3.9211561271       13.2759142018        7.2675261978
  O         8.5486748179       13.2842011330       15.5914615095
  O         7.3855095392       13.3550799725        4.1815896557
  O         2.6734107615       13.3122421886       12.3701196720
  O         2.7528115992       13.2854208582        2.7575924296
  O         7.6024673967       13.3605225171       10.9886069565
  O         0.8009444275        9.8294742844        4.8239201868
  O         5.5233353386        9.9327291525       13.3215270941
  O         6.7161607435        9.7837589194        8.1017403011
  O         2.1167910404        9.9450220808       16.2148478071
  O         1.9987540955        9.8400478505        9.5040303491
  O         6.5208333599        9.8616471764       17.6953130705
  O         3.0470997983        8.5595113666        4.7580761804
  O         7.7213105318        8.6371012162       12.8864221195
  O         1.5605356164        8.5622400717        6.8543552314
  O         6.3591273127        8.4444534985       15.0721969527
  P         1.5816862501        8.5764949662        5.2986392941
  P         6.3080132409        8.6018996151       13.5256629262
 Ca         8.2422844613        8.6133409753        4.0930881190
 Ca         3.4423267437        8.6571305547       12.4054625724
  O         5.5964050313        8.5557653787        6.1369675762
  O         0.8002561279        8.6209036762       14.5051442882
  O         8.1563651645        8.6620342118        6.3733968640
  O         3.3827653183        8.5765227878       14.6026952538
  P         6.7989113644        8.5764674676        7.1319058123
  P         2.0510928624        8.6001593926       15.4588939306
 Ca         2.6390032486        8.6059918302        2.2416006397
 Ca         7.0585156618        8.6055585344       10.2873160008
  O         0.8613267886        8.6441346848       11.4696407840
  O         5.5693022690        8.6410270751       19.7523128497
  O        18.6575735226        8.6424494172        9.1564258650
  O         4.4060868584        8.6382030858       17.3706645479
  P         1.1542346884        8.6240862470        9.9507544410
  P         5.6838471213        8.6125564101       18.2694680336
 Ca         3.5307854399        8.5983384460        7.9638257183
 Ca         8.2053355048        8.5883804545       16.4646626927
  O         1.6984554020       12.0049330845        7.5407566911
  O         6.3181274324       12.0214003208       15.6934333392
  O         3.0115973355       12.0845079167        5.3142378188
  O         7.7677659016       12.0725889000       13.5471990744
  P         3.0890441501       12.0228863463        6.8739567782
  P         7.7681863590       12.0410053566       15.0950977481
 Ca         6.0184244513       11.9933641971        8.0779449294
 Ca         1.0372301275       12.0285546637       16.2897229255
  O         8.6233407013       12.0451202909        5.9814533941
  O         3.8217498843       12.0842900354       14.3356689477
  O         6.0658445828       12.0237082311        5.8199564977
  O         1.2526926535       12.0768316652       14.0181531991
  P         7.3977089214       12.0376218618        4.9932181298
  P         2.6391991254       12.0830445038       13.3121920680
 Ca         2.1468205928       12.0748511841       10.2497941364
 Ca         7.0976206289       12.0283759389       18.0690499857
  O         3.8196964318       11.9970752013        0.7453767801
  O         8.5830661464       12.0665566753        9.0055874988
  O         4.8720006438       12.0212892438        3.1388656139
  O         9.6667573125       12.0234250665       11.3209842747
  P         3.6092866928       12.0251029357        2.2221198634
  P         8.3116323666       12.0544759137       10.5492165956
 Ca         1.1615419187       12.0450319948        4.0813138576
 Ca         5.7635117832       12.1186060021       12.5583514276
 Ca         4.6807563040        6.7747449151        4.7275002912
 Ca         0.0606502208        6.9153943939       13.0247070240
 Ca        -0.0442968644       10.3502809084        7.4501135789
 Ca         4.7412141454       10.1742125357       15.6679945115
 Ca        -0.0476817698       13.7516239835        7.5376003260
 Ca         4.6598721181       13.8469056245       15.7681556774
 Ca         4.6807292794       10.4006992046        4.7718475018
 Ca        -0.0241832814       10.2995656472       13.0158786934
  O         4.9197747783        7.6388220244        9.6292133508
  O         0.2974249028        7.8112626964       18.1823312062
  H         4.5128029097        7.3840097301       10.4678131645
  H        -0.1077073108        7.7772325118       19.0666718355
  O         4.2199278752       11.7723022110        9.4964563064
  O        -0.2579202448       11.1418571838       18.3928296289
  H         5.2695534803       10.6600567470       10.7940732220
  H         0.5026023819       11.2502902580       18.9908307413
  O         4.2095115218        5.5802981138       10.8310723209
  O        -0.2555421140        6.0444299198       18.3876519359
  H         4.9806211703        6.7138671659        9.2976863012
  H         0.5459026046        5.9720635289       18.9209721489
  O         4.8469604369        9.7082958123       10.7965488310
  O         0.3045428978        9.3691856497       18.1187733630
  H         4.3030769224       10.0014085149       10.0636787375
  H         0.0845044322        9.3869017759       19.0695764751
  O        10.2181158082        7.3629270143        4.8262805587
  O        14.8950843115        7.4326467779       12.8292035004
  O        16.1746626791        7.4059980135        8.1107002045
  O        11.5336374999        7.2521013301       16.2231050798
  O        11.0610480258        7.2484630533        9.3976844188
  O        15.9389460190        7.3154339506       17.7077882499
  O        13.3434021543       10.7562367948        7.4332242087
  O        17.9777699085       10.7808085810       15.5120582939
  O        16.8127959163       10.7167743194        4.1748489945
  O        11.9188048373       10.7180776895       12.5530667686
  O        12.1685080872       10.7834497977        2.7791822602
  O        16.8646290742       10.8166048071       10.9038372176
  O        13.3385918259       13.2346476429        7.4221099555
  O        17.9690091366       13.2864494934       15.5790264134
  O        16.8083470019       13.3430510375        4.1822895008
  O        12.0653270422       13.2419726561       12.3706975193
  O        12.1809720073       13.2835713360        2.7704012555
  O        16.9919416790       13.3349030719       10.9115097561
  O        10.2180922383        9.8428442547        4.8097555872
  O        14.9109071763        9.8823215637       13.0614988136
  O        16.3063751344        9.8927483050        7.9603551543
  O        11.5469613871        9.9370026187       16.2064216050
  O        11.4186194930        9.7429296203        9.5127910578
  O        15.9207049016        9.8543591844       17.6984258178
  O        12.4766799138        8.6135731621        4.7542363306
  O        17.1630231285        8.5777167258       12.8597730954
  O        11.0023829733        8.6326419688        6.8611677596
  O        15.7224268699        8.5049618717       14.9859893274
  P        11.0148234994        8.6059139773        5.3065468145
  P        15.7143195927        8.6151868998       13.4307967419
 Ca        17.6568512264        8.5995750533        4.0800666679
 Ca        12.7328383163        8.6512121451       12.4040938481
  O        15.0075129723        8.5648312198        6.1382688755
  O        10.2209168753        8.5833898038       14.4976918004
  O        17.5758169092        8.5320780532        6.3603493605
  O        12.8043157022        8.5569558955       14.5958676354
  P        16.2135562956        8.6051551773        7.1249046824
  P        11.4682441894        8.5879742702       15.4478224341
 Ca        12.0592511112        8.5972880925        2.2524252919
 Ca        16.7737967741        8.5161578328       10.2403178588
  O        10.2837625211        8.6015276776       11.4693980723
  O        14.9923902313        8.5817645016       19.7473357446
  O         9.1172823482        8.7418682087        9.1845887731
  O        13.8400088216        8.5665656679       17.3660328773
  P        10.4793113625        8.5775304307        9.9322536118
  P        15.1243435530        8.5845904315       18.2638068828
 Ca        12.9821094925        8.5528615544        8.0457075839
 Ca        17.6267009417        8.5775003152       16.5020434804
  O        11.0922710369       12.0064377598        7.5847217117
  O        15.7519881587       12.0028516810       15.7201927929
  O        12.4763893461       12.0014335998        5.4236916914
  O        17.1604234672       12.0760543911       13.5310068041
  P        12.5266329681       11.9943821880        6.9871640827
  P        17.1798108717       12.0424071713       15.0791578833
 Ca        15.3526770280       11.9531966198        8.1679709415
 Ca        10.4702718862       12.0373170932       16.3291966248
  O        18.0556762416       12.0233635755        5.9682787256
  O        13.2405405852       12.0649040699       14.3275286013
  O        15.4759297580       12.0025150131        5.8272960929
  O        10.6523883644       12.1066373426       14.0963648683
  P        16.8187543824       12.0272225611        5.0074403052
  P        12.0187741288       12.0375939679       13.3477749652
 Ca        11.5367374677       12.0785665397       10.0975106717
 Ca        16.5132305603       12.0302921210       18.0692221479
  O        13.2440009245       11.9998513566        0.7428271644
  O        18.0142107445       11.9927744708        8.9593020110
  O        14.2961154172       12.0133013162        3.1293487041
  O         0.2011470713       11.9917777191       11.3047764777
  P        13.0281871276       12.0238689443        2.2187437585
  P        17.7126857229       12.0429707479       10.4894668870
 Ca        10.6052526140       12.0259631503        4.1007780683
 Ca        15.1229876732       12.1081437356       12.3597271324
 Ca        14.0927944539        6.7852982142        4.7408708464
 Ca         9.4235271662        6.9109276484       12.9672860012
 Ca         9.3773547315       10.3554125435        7.4821941629
 Ca        14.1123301531       10.1860576610       15.6605083890
 Ca         9.3489631912       13.7494518934        7.4916764275
 Ca        14.1042253415       13.8702189711       15.7480651378
 Ca        14.1358562551       10.3883256402        4.7341248070
 Ca         9.4300967389       10.2926907236       12.9921301865
  O        13.6754182898        7.5223275506       10.0956054337
  O         9.7055140678        7.7691704771       18.1714298295
  H        14.3449064635        7.7784268676       10.7510044244
  H         9.3668335302        7.7671947629       19.0850895556
  O        13.6027604910       11.5243553268       10.5130867003
  O         9.1833444615       11.1210084895       18.4120535939
  H        15.0395270051       10.4393344025       10.4198730383
  H         9.9992942954       11.1835476182       18.9287495200
  O        14.1295835244        5.1039753992       10.6256624776
  O         9.1695308358        6.0668307377       18.4441084058
  H        13.7579712664        6.5204451768       10.1810965063
  H        10.0088320135        6.0011758874       18.9137031883
  O        14.7509994704        9.5468943797       10.1024307267
  O         9.7218287855        9.4117335919       18.1787026231
  H        13.8311339688        9.8249461836       10.1810703525
  H         9.2900627006        9.4501226140       19.0455058762
  O         8.2802042336        6.8132536884       25.4812325800
  C         9.3449119790        7.3006673512       25.4513197292
  O        10.4243035576        7.7872208508       25.4016974300
     387
 i =       31, E =     -6921.8650843019
  O         0.8041590314        0.4958890693        4.8231847467
  O         5.4799766314        0.6100092832       12.9325504876
  O         6.7496554970        0.4721068318        8.1017512350
  O         2.0888255652        0.3845378341       16.2386397606
  O         1.5248485628        0.3687594645        9.3874118026
  O         6.5023642931        0.4172908991       17.7194377665
  O         3.9309399352        3.8921287521        7.5154646855
  O         8.5247325593        3.9073751862       15.5040607026
  O         7.4329114961        3.8330767398        4.1085575094
  O         2.6142043455        3.9583367170       12.3813520266
  O         2.7461519716        3.8985248732        2.7794314330
  O         7.6917566131        3.8848526589       10.9861116633
  O         3.9369418521        6.4100744214        7.3802381077
  O         8.5460753087        6.4035167856       15.5898896495
  O         7.4100257540        6.4820586134        4.1581159343
  O         2.5500226142        6.4951856160       12.4470334810
  O         2.7566898037        6.4085604257        2.7702375296
  O         7.5632829442        6.4028127779       10.9063515839
  O         0.7883141373        2.9747127832        4.8248867847
  O         5.5169101578        3.0721651182       13.3823347007
  O         6.7491916753        2.9526824602        8.1235802342
  O         2.1558108632        3.0675477099       16.2004417118
  O         2.0144701326        2.8496049055        9.5268154936
  O         6.5322095887        2.9720360933       17.6996647683
  O         3.0533034801        1.7524884092        4.7454268882
  O         7.7195807064        1.7843274422       12.9465282626
  O         1.5974492666        1.7544117156        6.8626115024
  O         6.3665628591        1.5158337085       15.0950083532
  P         1.5954349227        1.7386423690        5.3074662621
  P         6.3082479596        1.7547095645       13.5697850341
 Ca         8.2200728616        1.7075304630        4.0876080930
 Ca         3.4085325080        1.7896449918       12.3833854438
  O         5.5580760978        1.7517908396        6.1805220461
  O         0.7891375371        1.7498880514       14.5059523961
  O         8.0916571724        1.7491843176        6.3919105186
  O         3.3852417749        1.6759476176       14.5952069866
  P         6.7461053271        1.7233349134        7.1791826041
  P         2.0487636351        1.7203164716       15.4484679625
 Ca         2.6530012441        1.7079126561        2.2478241862
 Ca         7.1158783483        1.7708268268       10.2790819102
  O         0.8787312170        1.7274432190       11.4961213894
  O         5.5664101514        1.7380913080       19.7488375194
  O        18.5072676519        1.9606647075        9.2546328984
  O         4.4168027429        1.6991412013       17.3698646576
  P         1.0218420436        1.7205062550        9.9527639678
  P         5.7010380033        1.7074882064       18.2646826666
 Ca         3.5497211170        1.6804872194        8.0252457303
 Ca         8.2191124314        1.7225546459       16.4664551385
  O         1.6972675604        5.1304596012        7.6270351531
  O         6.3233761977        5.1879542258       15.7315606024
  O         3.0586043516        5.1058840270        5.4759260853
  O         7.7200135244        5.2061521035       13.5334730075
  P         3.1395878002        5.1250449511        7.0369848875
  P         7.7441866614        5.1802868324       15.0798640974
 Ca         6.2733268093        5.1429539609        7.8932500761
 Ca         1.0501063161        5.1425399935       16.3274079562
  O         8.5638996725        5.1304108250        5.9933443088
  O         3.8269469307        5.2075941898       14.2768383033
  O         6.0242266985        5.1207180089        5.6936151747
  O         1.2482229337        5.1324872133       14.0572750689
  P         7.4049891781        5.1431926102        4.9305781543
  P         2.6196696853        5.2010661505       13.3019359620
 Ca         2.1756415201        5.1322336153       10.1575076827
 Ca         7.0895855844        5.1625627518       18.0463367890
  O         3.8139251680        5.1216834609        0.7394571574
  O         8.5674342336        5.1268750187        8.9274685815
  O         4.8814032983        5.1369681737        3.1113605476
  O         9.7468671799        5.2487352559       11.2226351968
  P         3.6042619979        5.1453295877        2.2069594925
  P         8.3900058348        5.1746822937       10.4735274801
 Ca         1.2020101162        5.1476247685        4.1104091251
 Ca         5.8670127838        5.0685705192       12.2518126004
 Ca         4.6942988993       -0.0778785257        4.7600014026
 Ca        -0.0637963618        0.0489762628       12.9573765491
 Ca        -0.0332239956        3.4615060626        7.4426329517
 Ca         4.7160781741        3.3270999749       15.6375191015
 Ca        -0.0033279145        6.8446414984        7.4643427553
 Ca         4.6631216830        6.9565592472       15.7363481638
 Ca         4.6908671445        3.4887564605        4.6794413600
 Ca        -0.0224043794        3.4251533718       12.9962067724
  O         4.0860471793        0.4555316840        9.9157190636
  O        -0.1909163775        0.8212271931       18.3396364763
  H         4.8664744433        0.4515666248       10.4870170969
  H         0.4023833777        0.9860643392       19.0853243676
  O         5.1293903582        5.0200261535        9.7799006436
  O        -0.1710395639        4.1586170607       18.3209228437
  H         5.1341811399        3.9469493823       10.0889625986
  H         0.5101693182        4.2775196812       18.9848404077
  O         5.3998238850       11.9948495635       10.3904318658
  O        -0.2132093681       13.0293542723       18.3499279669
  H         4.1015661192       13.2147708387        9.6581760000
  H         0.5036706578       12.8979664161       18.9623564897
  O         4.9388368315        2.8108949159       10.6254825350
  O         0.4929953817        2.5562940657       18.2821539666
  H         4.0687759188        2.6388932693       10.2620811614
  H        -0.1892259770        2.5509210038       18.9780266128
  O        10.1956329825        0.4670475995        4.7328697934
  O        14.9025047134        0.5855840568       12.9567812836
  O        16.3438155734        0.3421968919        7.9341878204
  O        11.5316111204        0.3865140875       16.2241487588
  O        11.3181377342        0.5289292030        9.4957260012
  O        15.8297637255        0.3859164210       17.7069423642
  O        13.3521113710        3.8303351144        7.0607254342
  O        17.9616646269        3.9091899609       15.5254761406
  O        16.8766564041        3.8616169156        4.0838340998
  O        12.0897837132        3.9638709083       12.3948644576
  O        12.1696157175        3.8940551429        2.7795725617
  O        16.8656532843        3.9126650457       10.9142121061
  O        13.3682686547        6.3876025869        7.2969443138
  O        17.9766581307        6.4133361755       15.5954483123
  O        16.8266018944        6.4722487716        4.1233734523
  O        12.0882276035        6.4705538892       12.4518884981
  O        12.1777203083        6.4113439133        2.7576524196
  O        16.8676177059        6.3917540208       10.8977762658
  O        10.2167767301        2.9611233132        4.7968705044
  O        14.9416876895        3.0916806100       13.3371742280
  O        16.1544828524        2.8784617008        8.0764150000
  O        11.5365103717        3.0664430405       16.2175800592
  O        11.3114930583        3.0021662273        9.4836333175
  O        15.9634883529        2.9647468898       17.6969973606
  O        12.4579162034        1.6742509788        4.7687653271
  O        17.1219917496        1.7724078452       12.8753298898
  O        10.9043506144        1.6768898689        6.8186263766
  O        15.7994999136        1.5909891837       15.0800306771
  P        10.9766063876        1.6953016457        5.2625171045
  P        15.7193511252        1.7642000920       13.5377439236
 Ca        17.6644980017        1.7130686142        4.1018734935
 Ca        12.7343391540        1.7087473683       12.4078195076
  O        15.0259869958        1.6617087276        6.1280081773
  O        10.2323807494        1.7485869540       14.4722202085
  O        17.5960456285        1.7539807803        6.3776315553
  O        12.8108844271        1.7008758054       14.5985907853
  P        16.2266759831        1.6594331725        7.1225912925
  P        11.4693567201        1.7259673804       15.4462839893
 Ca        12.0629318497        1.7180912557        2.2311881717
 Ca        16.4179822070        1.7457408753       10.2834051674
  O        10.2894381229        1.7603375805       11.4833912117
  O        14.9913786712        1.7564884373       19.7489405580
  O         9.1568957305        1.7601912200        9.1767042821
  O        13.8278914014        1.7643933119       17.3673336818
  P        10.5130980786        1.7668814046        9.9500743170
  P        15.1102926688        1.7119154665       18.2654287942
 Ca        12.8925829191        1.7632979588        7.8949010468
 Ca        17.6607709929        1.7671656804       16.4692788334
  O        11.1503910451        5.1155065868        7.5314816451
  O        15.7559628400        5.1900977953       15.7145329417
  O        12.4393431628        5.2286070802        5.3107732441
  O        17.2070014649        5.2030443584       13.5483034867
  P        12.5475215217        5.1467853415        6.8690129733
  P        17.1918321355        5.1839109553       15.0979206237
 Ca        15.4931841526        5.1219166372        8.0851440471
 Ca        10.4636897799        5.1522386944       16.3019788609
  O        17.9973015156        5.1682749694        5.9791863263
  O        13.2395084569        5.2065251338       14.3565332191
  O        15.4746195480        5.1231218252        5.7519795750
  O        10.6643953926        5.1625144251       14.0242058643
  P        16.8179937639        5.1532360449        4.9336074411
  P        12.0626994802        5.2006987835       13.3311394570
 Ca        11.7788780459        5.1439455013       10.2318980192
 Ca        16.4875678726        5.1420386881       18.0784129990
  O        13.2345491322        5.1176394491        0.7420222249
  O        17.9788903700        5.1361760297        8.9577495830
  O        14.3050927284        5.1390889493        3.1194880544
  O         0.1787245864        5.1769272155       11.2918289559
  P        13.0335479423        5.1446209588        2.2125920048
  P        17.6851462393        5.1418168665       10.4926527819
 Ca        10.6003187540        5.1703229602        4.0796924253
 Ca        15.2856253781        5.2235282868       12.4881023245
 Ca        14.1424898513       -0.1162321004        4.7451618622
 Ca         9.3794791720        0.0531247751       12.9632304568
 Ca         9.4524607055        3.4561293341        7.5012461032
 Ca        14.1501587531        3.3252320761       15.6475344765
 Ca         9.4453919428        6.8811198016        7.5570982879
 Ca        14.0761331582        6.9652168276       15.7572228203
 Ca        14.0856829532        3.5103463237        4.7571025554
 Ca         9.3835658935        3.4665267321       12.9358274731
  O        14.3116315636        0.9822343602        9.4507984948
  O         9.6885441148        0.8211799062       18.1938828615
  H        13.8633686317        0.6547066504       10.2426492709
  H         9.2791809224        0.8888851695       19.0735435264
  O        13.7418686549        4.4689044117        9.2972743044
  O         9.2564628723        4.2239384048       18.3460303723
  H        14.1918383813        3.6141072365       11.2843869653
  H         9.9557769127        4.3295566351       18.9923529961
  O        14.4755978977       12.6745341407       10.2402303305
  O         9.2613448524       12.9821010252       18.3613552934
  H        14.5169526566       13.8091697375        9.1957513203
  H        10.0175230859       12.8907748368       18.9575842814
  O        14.2277021851        2.7076739472       10.9046346606
  O         9.7923564223        2.6116317091       18.1882111226
  H        13.9750753536        3.0756615217       10.0184794037
  H         9.3751887288        2.5443492976       19.0595297530
  O         0.7851520523        7.3370540849        4.8120416684
  O         5.4907643121        7.4275384966       12.9368668380
  O         6.9353153125        7.2985538331        7.9977549208
  O         2.1075556971        7.2569144881       16.2219128600
  O         1.8972164950        7.3420171685        9.5038861913
  O         6.4496226965        7.3121158319       17.7134086606
  O         3.8679908265       10.7070711315        7.1160283020
  O         8.5415492525       10.7823443709       15.5642547508
  O         7.3946794915       10.7295038027        4.1686561683
  O         2.6733716703       10.8521109917       12.3790497989
  O         2.7433052063       10.7739182784        2.7779093072
  O         7.5932573100       10.7762546804       11.0138797191
  O         3.9258261297       13.2746905692        7.2540964836
  O         8.5411704679       13.2805274608       15.6102824750
  O         7.3843890710       13.3556053449        4.1777080389
  O         2.6738474097       13.3163627816       12.3713557495
  O         2.7520163010       13.2898468448        2.7524817050
  O         7.5997702448       13.3668745305       10.9895328493
  O         0.7995085263        9.8284200172        4.8201245564
  O         5.5301242841        9.9420338547       13.3435133218
  O         6.7075167927        9.7795598317        8.1004139377
  O         2.1191700185        9.9428633442       16.2162904754
  O         2.0100235590        9.8392522344        9.5017347246
  O         6.5337873468        9.8605382927       17.6973632843
  O         3.0456002443        8.5615922179        4.7528988394
  O         7.7148193248        8.6425392861       12.8828927789
  O         1.5680125670        8.5638605151        6.8529897779
  O         6.3743267724        8.4329676405       15.0750645657
  P         1.5808501851        8.5763668161        5.2969661924
  P         6.3090523259        8.6067386717       13.5330249085
 Ca         8.2417050531        8.6124995218        4.0918125646
 Ca         3.4402437897        8.6576930236       12.4023466135
  O         5.6069421830        8.5532337976        6.1310902902
  O         0.7947991894        8.6264329750       14.5036567873
  O         8.1649544474        8.6623222054        6.3707186227
  O         3.3865850695        8.5714225889       14.5993434335
  P         6.8059631310        8.5733890519        7.1273920969
  P         2.0519600901        8.6013381276       15.4540582168
 Ca         2.6472133174        8.6059088683        2.2387279238
 Ca         7.0518469441        8.6068621624       10.2947391166
  O         0.8625771213        8.6440659968       11.4718166754
  O         5.5683812173        8.6388011084       19.7518340933
  O        18.6736909002        8.6452706544        9.1469243086
  O         4.4033146532        8.6443562898       17.3688459514
  P         1.1643548347        8.6200915930        9.9492722895
  P         5.6841740201        8.6137168247       18.2671542023
 Ca         3.5340508233        8.6033238007        7.9661353835
 Ca         8.2066391743        8.5872268519       16.4741622813
  O         1.6984098655       12.0083457895        7.5310325673
  O         6.3144926569       12.0199863432       15.6912475389
  O         2.9981444105       12.0837723468        5.3028429533
  O         7.7740962744       12.0832882123       13.5515750879
  P         3.0888681469       12.0254289434        6.8565567844
  P         7.7671035901       12.0433424019       15.1002230646
 Ca         6.0160144765       11.9944341643        8.0780055741
 Ca         1.0377812676       12.0203834688       16.3025379982
  O         8.6231055764       12.0500529809        5.9846498368
  O         3.8087371292       12.0854736354       14.3426577379
  O         6.0588200496       12.0191928648        5.8113947521
  O         1.2490741118       12.0778370409       14.0163912648
  P         7.3979073341       12.0381631578        4.9906736829
  P         2.6366885534       12.0876578351       13.3124506968
 Ca         2.1320333952       12.0693872250       10.2567733981
 Ca         7.1012699426       12.0239403330       18.0589194424
  O         3.8198325838       11.9967674458        0.7480863167
  O         8.5814294122       12.0636245040        9.0058326938
  O         4.8799113183       12.0174085294        3.1336221996
  O         9.6708772898       12.0342681283       11.3160692388
  P         3.6110609526       12.0230943653        2.2196328823
  P         8.3104150126       12.0569304579       10.5504729701
 Ca         1.1499295540       12.0457123786        4.0746568081
 Ca         5.7570571213       12.1218808797       12.5689319975
 Ca         4.6733243803        6.7755013956        4.7282425480
 Ca         0.0601382957        6.9210617136       13.0257715207
 Ca        -0.0482489663       10.3494908505        7.4440053233
 Ca         4.7458317922       10.1755638408       15.6666106955
 Ca        -0.0488854742       13.7451468530        7.5422734880
 Ca         4.6556959275       13.8366657113       15.7866478180
 Ca         4.6739722447       10.3929446960        4.7692082628
 Ca        -0.0316419709       10.3047673944       13.0204285094
  O         4.9054805478        7.6225252313        9.6194192324
  O         0.3398666301        7.8041317926       18.2026950462
  H         4.5180118553        7.3653710304       10.4754775407
  H        -0.1401268945        7.7329794665       19.0472983334
  O         4.2378442569       11.7779283147        9.5002292416
  O        -0.2522652705       11.1465671406       18.4254099320
  H         5.2791911173       10.6624984214       10.7931535583
  H         0.5020666915       11.2183007402       19.0112400661
  O         4.2111087697        5.5868227788       10.8155386055
  O        -0.2642514008        6.0509258338       18.4185295825
  H         4.9788282360        6.7148179638        9.2647887612
  H         0.5454130144        5.9954891604       18.9373226809
  O         4.8469108807        9.7103676888       10.7920347114
  O         0.3471849539        9.3490124100       18.1369545275
  H         4.2893943815       10.0164433297       10.0681813198
  H         0.0645091098        9.4366637634       19.0605638488
  O        10.2179090574        7.3621859025        4.8279033156
  O        14.8946334869        7.4393562382       12.8199253042
  O        16.1701632474        7.4101774463        8.1113916429
  O        11.5299735113        7.2510401683       16.2284150227
  O        11.0660516370        7.2476349615        9.3924351998
  O        15.9496843040        7.3180096657       17.7078157667
  O        13.3425542613       10.7522025116        7.4310326145
  O        17.9710930342       10.7791010423       15.5073938400
  O        16.8110156726       10.7152026994        4.1734004837
  O        11.9195449649       10.7163992420       12.5454991007
  O        12.1666714768       10.7770904219        2.7788139204
  O        16.8612308978       10.8242355779       10.9041990699
  O        13.3356866040       13.2377073752        7.4168169912
  O        17.9596180171       13.2831746785       15.5950433124
  O        16.8051552313       13.3374246301        4.1822868881
  O        12.0679660611       13.2310098478       12.3649230766
  O        12.1805846059       13.2872528071        2.7688291886
  O        16.9995664154       13.3431522408       10.9119196875
  O        10.2144523591        9.8454729901        4.8086741013
  O        14.9164981477        9.8974947366       13.0634632610
  O        16.3196211307        9.9009414996        7.9404081734
  O        11.5405594418        9.9345214318       16.2077239836
  O        11.4358958315        9.7367275908        9.5141659889
  O        15.9328548393        9.8539719361       17.6977110324
  O        12.4732419749        8.6180328247        4.7532623494
  O        17.1612702668        8.5794345749       12.8578901446
  O        10.9989715622        8.6370095949        6.8634146764
  O        15.7244740832        8.4914356968       14.9803808221
  P        11.0109201092        8.6089727225        5.3064714853
  P        15.7103683083        8.6201600678       13.4259155229
 Ca        17.6555099777        8.5967293207        4.0780882795
 Ca        12.7271792988        8.6473261000       12.4051325955
  O        15.0141942643        8.5647975158        6.1326212435
  O        10.2174813169        8.5765468315       14.4953897992
  O        17.5809384680        8.5261622063        6.3535728403
  O        12.8110425010        8.5560108787       14.6017055352
  P        16.2196916104        8.6015849393        7.1164905662
  P        11.4669833549        8.5863179139       15.4492118948
 Ca        12.0656620850        8.5965802855        2.2481838568
 Ca        16.7929084172        8.5298820184       10.2519528388
  O        10.2875233101        8.5916658917       11.4670530810
  O        14.9908831513        8.5743722733       19.7467648056
  O         9.1220584894        8.7473401443        9.1826911716
  O        13.8388726922        8.5655654469       17.3680102654
  P        10.4843842349        8.5777515489        9.9285638761
  P        15.1257182661        8.5812500705       18.2646777358
 Ca        12.9832039004        8.5440867315        8.0458099224
 Ca        17.6149980768        8.5780091568       16.4994806206
  O        11.0915607301       12.0024072732        7.5845915932
  O        15.7489612453       12.0030586531       15.7213060814
  O        12.4774167974       12.0007391766        5.4219966042
  O        17.1508711109       12.0811224139       13.5312826548
  P        12.5248613129       11.9922098268        6.9834771290
  P        17.1740304351       12.0446267821       15.0804056023
 Ca        15.3534595431       11.9401925016        8.1772689926
 Ca        10.4712408619       12.0363384919       16.3515289647
  O        18.0588394669       12.0216552430        5.9696112086
  O        13.2288211926       12.0647599397       14.3379600743
  O        15.4701016580       11.9988457282        5.8272619287
  O        10.6475542719       12.1159133023       14.0999343198
  P        16.8168660652       12.0234260695        5.0106302677
  P        12.0146101445       12.0338306260       13.3498607223
 Ca        11.5622554967       12.0645812711       10.0951648999
 Ca        16.5092138307       12.0228818297       18.0597877922
  O        13.2423143241       12.0014769813        0.7449193632
  O        18.0096396407       11.9891902414        8.9616632823
  O        14.3051321992       12.0083426942        3.1214728574
  O         0.1916957122       11.9875404404       11.3115862654
  P        13.0294954510       12.0223538864        2.2141619785
  P        17.7128943780       12.0477876183       10.4864997930
 Ca        10.6055938312       12.0224358321        4.0954169440
 Ca        15.1131418150       12.1319806638       12.3418272292
 Ca        14.0965821867        6.7912464313        4.7369922926
 Ca         9.4118232462        6.9157511203       12.9672304349
 Ca         9.3779953664       10.3535039726        7.4781207267
 Ca        14.1202859643       10.1868508103       15.6621145818
 Ca         9.3450491357       13.7516392305        7.4957759938
 Ca        14.1068896194       13.8641138751       15.7645196628
 Ca        14.1401574220       10.3789801903        4.7333207210
 Ca         9.4187284124       10.2962941164       12.9974210774
  O        13.6642421391        7.4941915963       10.1377842239
  O         9.7459382757        7.7955195187       18.1918517715
  H        14.3648711254        7.7908871654       10.7310442642
  H         9.3393473974        7.7395847299       19.0791112407
  O        13.6067630982       11.5215599657       10.5247334061
  O         9.1771169841       11.1458022859       18.4434546550
  H        15.0537666064       10.4261572021       10.4261586204
  H         9.9971413598       11.1609182305       18.9453242048
  O        14.1104800350        5.1133049649       10.6084041178
  O         9.1586788140        6.0351541842       18.4760375519
  H        13.7656627691        6.5009185230       10.2219939666
  H        10.0109172335        6.0211372194       18.9285357467
  O        14.7423325573        9.5483924605       10.0990684144
  O         9.7619280361        9.3909251689       18.1928199737
  H        13.8162882602        9.8444217329       10.1589112392
  H         9.2579173102        9.4746965226       19.0338395694
  O         8.2899539213        6.8114964011       25.4802752753
  C         9.3498303928        7.3027251938       25.4502146312
  O        10.4161980184        7.7854038038       25.4040685294
