     387
 i =        1, E =     -6906.5096505061
  O        16.2491340088       10.0283354980        0.8007807496
  O        11.1619624111        6.7501361382        4.0833191673
  O        27.6845838493        8.3831030218        2.4222971486
  O        22.6076412338        5.1097676754        5.7044860056
  O         2.8235809772        5.0141581211        3.8468072038
  O        19.3434592243        6.6416458743        2.2077089981
  O        14.2424261522        3.3742228662        5.4883332632
  O        25.7149133724        1.7610563010        7.1257968023
  O         7.1685363717       12.1593239847        3.2893459247
  O         2.1048637221        8.8961839539        6.5503360497
  O        21.7803770836        2.2825735541        1.6424241851
  O        18.5983974070       10.5264668412        4.9210507339
  O        17.3520924077        2.6152344314        2.3092079348
  O        14.1622110040       10.8563169065        5.5857904361
  O         2.7346871212       12.4891272475        3.9396390779
  O        25.5987296232        9.2084341371        7.2184900781
  O        14.2459653496        5.9849291239        0.8991032351
  O         9.1730299646        2.7170799679        4.1630651546
  O        25.7081433651        4.3516366539        2.5176956623
  O        20.6065645643        1.0869941465        5.7993780926
  O        11.8034362825       10.3562252565        1.4640789531
  O         6.7305532772        7.0823716598        4.7360466962
  O        23.2619148164        8.7205358013        3.0853253242
  O        18.1578107389        5.4359248827        6.3739805488
  O        15.4968291797        1.4333867284        3.5048672203
  O        12.3228860941        9.6727054817        6.7804559027
  O        28.8499111922       11.3059662049        5.1270864422
  O        23.7598701448        8.0253808084        8.4104986184
  O        12.3910526794        4.7851172276        2.0852786384
  O         7.3348733859        1.5311130190        5.3644396650
  O        23.8669824393        3.1628684841        3.7220288660
  O        22.5634575731       22.9250372992        6.9991974330
  O         9.9591346594        9.1549719035        2.6595782081
  O         4.8932995752        5.8972478574        5.9208523964
  O        21.4057041529        7.5331674251        4.2890443234
  O        16.3241569071        4.2549227544        7.5668887007
  O        14.4075728301        8.8451599099        1.9942260518
  O         9.3232228095        5.5646492891        5.2725120978
  O        25.8482547140        7.1991202763        3.6159153156
  O        20.7550112868        3.9266870329        6.9010591912
  O         0.9845171260        3.8291801022        5.0428950607
  O        17.5005042879        5.4547271415        3.4097666698
  O        12.4059610714        2.1909656409        6.6931559404
  O        23.8583158714        0.5605663673        8.3098058207
  O         5.3314231427       10.9714358340        4.4708838460
  O        28.2081950164        7.6922685114        7.7435123282
  O        19.9486593104        1.1053740735        2.8329700595
  O        16.7482546474        9.3429301765        6.1248965030
  O        14.5039584093       11.4051844998        2.0743570868
  O         9.4222034867        8.1182927951        5.3548681688
  O        25.9475206358        9.7531524892        3.6944798539
  O        20.8698471080        6.4716238572        6.9878579634
  O        16.2304640474        9.9504861495        3.3019546780
  O        11.1507000118        6.6655069661        6.5818733329
  O        27.6648114050        8.3080029568        4.9202279361
  O        22.5903332660        5.0375337470        8.2093330248
  P        15.3315078117       10.0639961473        1.9971460884
  P        10.2659030749        6.8108483322        5.3191966301
  P        26.7682926934        8.4453489871        3.6809523757
  P        21.6831805374        5.1913122493        6.9929985648
 Ca        10.4874198405        4.4716259811        3.3288593149
 Ca         5.4019500195        1.1844851265        6.6201782535
 Ca        26.9873279364        6.0958154712        1.7058295505
 Ca        21.9280194090        2.8086757502        4.9966622598
  O         1.2235081891        3.5319847841        2.5125965515
  O        17.7528545337        5.1721346563        0.8823203013
  O        12.6509584268        1.9036990552        4.1598334110
  O        24.1031201389        0.2603624340        5.7865166236
  O        28.4096828829        5.7522982446        3.5278283035
  O        16.9774748449        7.3851331708        1.8973912249
  O        11.8854828418        4.1197673546        5.1846227309
  O        23.3335231767        2.4836673689        6.8126009959
  P         1.3669378504        4.5098606737        3.6985645567
  P        17.8744353945        6.1473250269        2.0293330054
  P        12.8320923198        2.8772083290        5.3475971658
  P        24.2192149785        1.2361463468        7.0277257497
 Ca         8.1380209471        7.7894080372        3.0012308992
 Ca         3.0462221708        4.5262222335        6.2983993214
 Ca        24.6158747514        9.4277964075        1.3798650995
 Ca        19.5537014850        6.1725521945        4.6616527763
  O         7.7543272474       10.4887030548        5.1345481160
  O         2.6696136543        7.2150958163        8.3950448079
  O        22.3773725537        0.6153773534        3.4851024419
  O        19.1767902332        8.8621379411        6.7556748619
  O         6.7936982253        9.7120276730        2.8886424911
  O         1.7211776408        6.4284262364        6.1488747646
  O        25.2334810278       22.8480424732        1.2412754193
  O        18.2309756705        8.0803869740        4.5258599474
  P         6.7960746867       10.8217713805        3.9468731741
  P         1.7119533866        7.5593677646        7.3197680276
  P        21.3927422892        0.9516059794        2.3015867662
  P        18.2627168228        9.1793507186        5.6368263230
 Ca         2.9815723375        1.6638081271        3.3622977680
 Ca        19.4801659385        3.2933826971        1.7047851307
 Ca        14.4217086499        0.0192152071        4.9863737151
 Ca        27.7443816752        9.9007388863        6.6765960469
  O        17.2380431569        0.0734165965        2.2229511086
  O        14.0610837250        8.3019080296        5.5113616916
  O         2.6382755347        9.9361923125        3.8547337752
  O        25.5043210647        6.6491478746        7.1376365682
  O        15.5174738807        1.5066121520        0.9995938637
  O        12.3426898866        9.7466124355        4.2821054478
  O        28.8586472899       11.3881347865        2.6284373413
  O        23.7794280801        8.1054744072        5.9139200402
  P        16.4260663867        1.3513344804        2.2133187913
  P        13.2405362088        9.6105737082        5.5345705361
  P        29.7423008681       11.2425435798        3.8878082697
  P        24.6783208742        7.9905101744        7.2075292415
 Ca         4.7496755360        5.3575322654        2.5883692296
 Ca        16.1803075814        3.7346936696        4.2107595119
 Ca        11.1215078158        0.4400752874        7.5097279405
 Ca        27.6136167716        2.0806578996        5.8711812971
  O        14.0033326768        6.2825207760        3.4216683177
  O         8.9359012556        3.0093076939        6.6939402995
  O        25.4588744998        4.6409871195        5.0547705428
  O        20.3536347455        1.3721233891        8.3278736884
  O        14.7724957284        4.0596655336        2.4012645946
  O         9.6972542051        0.7935221840        5.6806038246
  O        26.2261852231        2.4192304990        4.0245174695
  O        24.9323896334       22.1804758853        7.3114571670
  P        13.8935784726        5.3082155253        2.1763201889
  P         8.7913718633        2.0306661417        5.5128617463
  P        25.2665155018        3.6692034802        3.8554945011
  P        20.2353547818        0.3959689317        7.1812806286
 Ca         7.1093798129        2.0116207488        2.9111966767
 Ca         3.9290639513       10.2576329009        6.2031944622
 Ca        18.5551359872        0.3707943093        4.5464096404
 Ca        15.3856683948        8.6303587518        7.8347389365
  O         9.3931813807       10.8370767440        0.8161448044
  O         4.3065432828        7.5647864923        4.0765612919
  O        20.8283486983        9.1969565119        2.4516398290
  O        15.7288202384        5.9273736523        5.7209168371
  O        10.3390420216       11.6261894991        3.0621558996
  O         5.2676731095        8.3430101481        6.3205938937
  O        21.7765594712        9.9774064982        4.6826096063
  O        16.6799773170        6.7132890015        7.9653761646
  P        10.3444530611       10.5018214061        1.8858749575
  P         5.2599839163        7.2334271205        5.2635876434
  P        21.7517747464        8.8644404410        3.5724834387
  P        16.7162342336        5.5985050008        6.9098879900
 Ca        12.2685688197        8.1575000943        2.5411524734
 Ca         7.1752638785        4.8779521189        5.8499043024
 Ca        23.6781013757        6.5150369205        4.2008693156
 Ca        18.6288781737        3.2495113402        7.5030204413
 Ca        13.3596344783        2.1557189915        1.8624063378
 Ca        10.1602804312       10.3939130185        5.1452873260
 Ca        24.7531855244        0.5237684287        3.5304039217
 Ca        21.5816947107        8.7572543747        6.8067163497
 Ca         4.4424449865        9.2895752414        2.4214467249
 Ca        15.8762734387        7.6493146121        4.0470857869
 Ca        10.7833509287        4.3783810122        7.3347664664
 Ca        27.3006921151        6.0336976253        5.7132510659
 Ca         1.8999645712        7.6597474374        4.0653648705
 Ca        18.4285549693        9.2970890627        2.4004399161
 Ca        13.3531484236        6.0228037953        5.6789464384
 Ca        24.7490380729        4.3877816173        7.3454694567
 Ca        10.8063179944        0.5085184327        3.4964250638
 Ca         7.6183196594        8.7656690826        6.7881366752
 Ca        27.3215928977        2.1675877139        1.8752826052
 Ca        24.1324670190       10.4047790141        5.1613214335
  O         4.3250000000        2.8740000000        5.0050000000
  O        30.7339003743       22.3676111395        8.5471915122
  O        20.8390010000        4.5100000000        3.3610000000
  O        15.7590000000        1.2390000000        6.6500000000
  H         4.8516700568        3.1250464664        4.7537817176
  H        31.4295515966       22.8160651408        8.1057383949
  H        21.3161528470        4.7285769480        3.1407032825
  H        16.2709475488        1.4823714271        6.4130667579
  O         6.8640000000        4.5100000000        3.3610000000
  O         1.7850000000        1.2390000000        6.6500000000
  O        18.2990000000        2.8740000000        5.0050000000
  O        16.7572594637       22.3682096022        8.5507516800
  H         7.3185638596        4.7146115696        3.1495111283
  H         2.3074334437        1.4864706587        6.4024002343
  H        18.8182781315        3.1207870701        4.7564473866
  H        17.4460267464       22.8089854763        8.1111699315
  O         5.8340000000        3.6690000000        4.2040000000
  O         0.7550000000        0.3970000000        7.4930000000
  O        22.6145800212        5.5651186818        2.3048932593
  O        17.2689990000        2.0330000000        5.8480000000
  H         5.3092155075        3.4204157002        4.4538502598
  H         0.2752034910        0.1780492855        7.7211224614
  H        21.9203241934        5.1179413344        2.7446527363
  H        16.7503949465        1.7891139208        6.0940455408
  O         8.6417924349        5.5669261565        2.3029249671
  O         3.2940000000        2.0330000000        5.8480000000
  O        19.8080010000        3.6690000000        4.2040000000
  O        14.7290000000        0.3970000000        7.4930000000
  H         7.9472853917        5.1188115756        2.7428117787
  H         2.7718576234        1.7852621847        6.1030802718
  H        19.2950320977        3.4271807664        4.4495988879
  H        14.2797035114        0.1965750663        7.7023431215
  O        18.1502440640       21.5392915862        0.8005836770
  O        13.0640134805       18.2621482805        4.0832768452
  O        29.5866078107       19.8950472282        2.4222965614
  O        24.5093770784       16.6215702719        5.7047400151
  O         4.7253881202       16.5250779478        3.8467488108
  O        21.2450924886       18.1532833370        2.2074791106
  O        16.1444736121       14.8853259958        5.4883684065
  O        27.6163052987       13.2731113772        7.1258012230
  O         5.2660535934        0.6479841546        3.2893743683
  O         4.0068632231       20.4071712176        6.5503658932
  O        23.6822176139       13.7942021460        1.6425954466
  O        20.5002963714       22.0383354282        4.9211244154
  O        19.2541173654       14.1262750402        2.3092020542
  O        16.0643762496       22.3675771284        5.5858485582
  O         0.8333605668        0.9772407763        3.9397190761
  O        27.5005187112       20.7201265919        7.2185413091
  O        16.1479991669       17.4968685651        0.8992634265
  O        11.0750509610       14.2281359270        4.1630127656
  O        27.6102468574       15.8625976755        2.5176697334
  O        22.5077283165       12.5990766792        5.7993862120
  O        13.7045455621       21.8682203505        1.4640301847
  O         8.6325090209       18.5933479885        4.7359965792
  O        25.1640132629       20.2316604461        3.0853067363
  O        20.0598104107       16.9479411599        6.3740336411
  O        17.3987878293       12.9444030047        3.5049378268
  O        14.2240893470       21.1838483318        6.7802550461
  O        30.7510604672       22.8170154913        5.1268293671
  O        25.6617760028       19.5364476254        8.4106695137
  O        14.2920179592       16.2969667066        2.0852860250
  O         9.2367418169       13.0421430998        5.3645006072
  O        25.7688673344       14.6748580265        3.7220382319
  O        20.6622596817       11.4128197424        6.9992107497
  O        11.8609395268       20.6665709066        2.6597685877
  O         6.7953200580       17.4084434290        5.9207390564
  O        23.3077304634       19.0451292328        4.2891260330
  O        18.2262500900       15.7661508884        7.5667413739
  O        16.3096261273       20.3563721497        1.9942755823
  O        11.2252126073       17.0765741383        5.2723932920
  O        27.7504906947       18.7103596773        3.6159000143
  O        22.6559992576       15.4383506575        6.9010873327
  O         2.8864428694       15.3410416763        5.0430098439
  O        19.4024282413       16.9666935626        3.4098096315
  O        14.3070386917       13.7021352396        6.6928597634
  O        25.7602368435       12.0716168941        8.3098081113
  O         7.2334279237       22.4833571016        4.4709462315
  O        30.1096235366       19.2041808416        7.7433718203
  O        21.8504140754       12.6172988672        2.8330574711
  O        18.6501776108       20.8549056290        6.1249126366
  O        16.4059825493       22.9171538313        2.0743905886
  O        11.3241017811       19.6295931411        5.3548012796
  O        27.8493799810       21.2645162200        3.6945410099
  O        22.7711376242       17.9830629934        6.9878637915
  O        18.1323985985       21.4615391196        3.3018615078
  O        13.0527790347       18.1764722743        6.5818257073
  O        29.5668405799       19.8191132670        4.9202124385
  O        24.4914046373       16.5493575192        8.2093394434
  P        17.2332036564       21.5756547493        1.9972672962
  P        12.1679388459       18.3225782172        5.3192901178
  P        28.6702686905       19.9567677569        3.6809192544
  P        23.5844000257       16.7032264469        6.9927961590
 Ca        12.3893693897       15.9826862401        3.3288957642
 Ca         7.3039601642       12.6964653086        6.6202070699
 Ca        28.8893030388       17.6068806800        1.7058449191
 Ca        23.8298691478       14.3205123466        4.9965387666
  O         3.1244721284       15.0439984163        2.5125789605
  O        19.6539047690       16.6832537047        0.8823709545
  O        14.5528898969       13.4156438042        4.1598077565
  O        26.0051158623       11.7722043072        5.7863054304
  O        30.3116081721       17.2643872763        3.5278255571
  O        18.8795478813       18.8973012438        1.8974624791
  O        13.7867035037       15.6315856523        5.1846798469
  O        25.2353476905       13.9946658768        6.8126749585
  P         3.2683921941       16.0218351121        3.6985179271
  P        19.7757290285       17.6595244669        2.0293318017
  P        14.7337268459       14.3890826913        5.3478208766
  P        26.1210649126       12.7473376749        7.0277900836
 Ca        10.0390643763       19.3013605971        3.0012519270
 Ca         4.9481327130       16.0372139799        6.2984006156
 Ca        26.5168659276       20.9397242897        1.3798715347
 Ca        21.4556590809       17.6836024912        4.6616015489
  O         9.6563715614       22.0006678114        5.1344738034
  O         4.5707939846       18.7259415974        8.3952637377
  O        24.2792327826       12.1263910556        3.4849606159
  O        21.0786715698       20.3732140278        6.7556040394
  O         8.6948524544       21.2238133639        2.8884860489
  O         3.6232042561       17.9394358381        6.1489050041
  O        23.3320319194       11.3366182442        1.2410670097
  O        20.1329573233       19.5921615351        4.5256377476
  P         8.6979772984       22.3333703517        3.9469316151
  P         3.6134119043       19.0705722137        7.3195985960
  P        23.2943215959       12.4632217780        2.3016740738
  P        20.1650210347       20.6907518716        5.6370826147
 Ca         4.8835109433       13.1758123214        3.3623148517
 Ca        21.3821938442       14.8043885945        1.7047355585
 Ca        16.3236018801       11.5312809693        4.9863375404
 Ca        29.6464723040       21.4128524777        6.6766176489
  O        19.1401616420       11.5850400537        2.2229685671
  O        15.9631242006       19.8138098241        5.5113502031
  O         4.5403119538       21.4481656439        3.8547479261
  O        27.4063125828       18.1609858321        7.1376519267
  O        17.4186409098       13.0185586463        0.9998060200
  O        14.2446936718       21.2585656963        4.2820480259
  O        30.7606584166       22.8991655654        2.6284291808
  O        25.6807023901       19.6174208616        5.9141975798
  P        18.3277769082       12.8625835787        2.2130956535
  P        15.1421866416       21.1222327713        5.5347428309
  P        31.6439652859       22.7542316507        3.8880054431
  P        26.5802657447       19.5020149880        7.2071201748
 Ca         6.6506307367       16.8694947710        2.5883856964
 Ca        18.0823731176       15.2466326647        4.2108296250
 Ca        13.0234950108       11.9511433558        7.5096962482
 Ca        29.5155276383       13.5927011149        5.8711582039
  O        15.9052662760       17.7934872894        3.4215420995
  O        10.8378070599       14.5211447777        6.6937226661
  O        27.3609022043       16.1520819202        5.0548637790
  O        22.2548043868       12.8839911729        8.3278926978
  O        16.6741486188       15.5708880540        2.4011521479
  O        11.5986222300       12.3050197147        5.6806842684
  O        28.1273429634       13.9300508428        4.0245682588
  O        23.0310679062       10.6693922227        7.3116010341
  P        15.7950041960       16.8192309556        2.1763321257
  P        10.6931830642       13.5422778545        5.5129984701
  P        27.1683894628       15.1803875969        3.8554674188
  P        22.1369369456       11.9081760952        7.1810452904
 Ca         9.0104403979       13.5236379481        2.9111974763
 Ca         5.8311207763       21.7695836396        6.2032479592
 Ca        20.4571145417       11.8820952255        4.5464498379
 Ca        17.2866728772       20.1413851165        7.8347375037
  O        11.2942763904       22.3490422214        0.8162349454
  O         6.2085121635       19.0767714108        4.0765640740
  O        22.7304336499       20.7089204708        2.4516490017
  O        17.6307226866       17.4384732571        5.7208141940
  O         8.4376267889        0.1148813774        3.0620125390
  O         7.1695483348       19.8541582688        6.3206602814
  O        23.6785447061       21.4894878068        4.6826200533
  O        18.5809732076       18.2244869710        7.9655314447
  P        12.2455859369       22.0134950186        1.8857944407
  P         7.1620323986       18.7450171112        5.2636300208
  P        23.6535418479       20.3764182241        3.5723458124
  P        18.6182153750       17.1099194521        6.9099809204
 Ca        14.1696120110       19.6685587412        2.5411640236
 Ca         9.0773867685       16.3900440095        5.8499283811
 Ca        25.5800456982       18.0261245203        4.2007963043
 Ca        20.5306818441       14.7615209334        7.5030361137
 Ca        15.2607319574       13.6677132491        1.8623883337
 Ca        12.0622731221       21.9058613764        5.1453611529
 Ca        26.6551195596       12.0348126545        3.5303714466
 Ca        23.4836741803       20.2683544526        6.8065772535
 Ca         6.3434549117       20.8006241463        2.4214079633
 Ca        17.7783302256       19.1602905646        4.0470653863
 Ca        12.6852889573       15.8904520768        7.3347984548
 Ca        29.2026752878       17.5457169292        5.7132572107
 Ca         3.8019393037       19.1717617870        4.0653849412
 Ca        20.3305532301       20.8088924315        2.4004784932
 Ca        15.2551120553       17.5338753049        5.6789737399
 Ca        26.6501698319       15.8988001864        7.3454494770
 Ca        12.7083419138       12.0205109111        3.4964662870
 Ca         9.5193864804       20.2775612908        6.7883408382
 Ca        29.2235488589       13.6795470346        1.8753242306
 Ca        26.0334898453       21.9166613695        5.1612831199
  O         6.2260000000       14.3860000000        5.0050000000
  O        28.8327833718       10.8557035200        8.5470758689
  O        22.7400000000       16.0220000000        3.3610000000
  O        17.6609990000       12.7500000000        6.6500000000
  H         6.7533007550       14.6357587269        4.7532960648
  H        29.5277449994       11.3047890771        8.1059886630
  H        23.2173746321       16.2404190974        3.1406668823
  H        18.1725079506       12.9929283621        6.4134603978
  O         8.7660000000       16.0220000000        3.3610000000
  O         3.6870000000       12.7500000000        6.6500000000
  O        20.2010000000       14.3860000000        5.0050000000
  O        14.8549698354       10.8562795341        8.5507180588
  H         9.2205031834       16.2262618608        3.1495809712
  H         4.2097745889       12.9978398983        6.4022427350
  H        20.7199838336       14.6312705597        4.7566482722
  H        15.5435079091       11.2978582249        8.1112257539
  O         7.7360000000       15.1800000000        4.2040000000
  O         2.6560000000       11.9090000000        7.4930000000
  O        24.5168193103       17.0762034958        2.3047720073
  O        19.1700000000       13.5440000000        5.8480000000
  H         7.2110897366       14.9314499794        4.4538303668
  H         2.1775656421       11.6885783386        7.7211359803
  H        23.8219940870       16.6297046394        2.7449023761
  H        18.6532119369       13.3004681749        6.0943397238
  O        10.5432185938       17.0781807986        2.3026405423
  O         5.1960000000       13.5440000000        5.8480000000
  O        21.7099990000       15.1800000000        4.2040000000
  O        16.6310010000       11.9090000000        7.4930000000
  H         9.8488228205       16.6304888760        2.7431495582
  H         4.6725636557       13.2966173552        6.1031202840
  H        21.1963942162       14.9390015660        4.4492477979
  H        16.1821399236       11.7071995953        7.7021609799
  O        16.2408071594       10.0059898514       15.5285830460
  C        15.5408559542       11.2103168386       15.5614214120
  O        14.8412750345       12.4175547884       15.5934532982
     387
 i =        2, E =     -6911.3497767609
  O        16.2493737704       10.0282629855        0.8001477822
  O        11.1619270655        6.7503259345        4.0837588605
  O        27.6840886604        8.3831813878        2.4230943116
  O        22.6068011675        5.1102148196        5.7071131457
  O         2.8230715720        5.0140578174        3.8462231063
  O        19.3416395882        6.6420895855        2.2069497010
  O        14.2427210562        3.3749073871        5.4880482950
  O        25.7123514457        1.7601222917        7.1259316565
  O         7.1685054319       12.1587097662        3.2890374848
  O         2.1040722301        8.8940047750        6.5514299149
  O        21.7805361130        2.2815578982        1.6421581367
  O        18.5987917081       10.5246716876        4.9213971157
  O        17.3507574747        2.6138349174        2.3081030376
  O        14.1612030215       10.8552851391        5.5853933211
  O         2.7342066655       12.4881703146        3.9387827066
  O        25.5983934676        9.2083386970        7.2187490462
  O        14.2465380464        5.9853810506        0.8977166764
  O         9.1727465675        2.7161888987        4.1646427583
  O        25.7076531587        4.3511219452        2.5184219853
  O        20.6064998731        1.0856461532        5.8020030876
  O        11.8030158037       10.3562820150        1.4635429108
  O         6.7290753886        7.0828371163        4.7369950781
  O        23.2595747042        8.7207784370        3.0857935767
  O        18.1570097907        5.4369046654        6.3747573921
  O        15.4979638454        1.4330491164        3.5020933304
  O        12.3230320750        9.6724168532        6.7794853898
  O        28.8497003262       11.3056449662        5.1262790541
  O        23.7597495734        8.0254124482        8.4108434735
  O        12.3935044261        4.7861518801        2.0848660507
  O         7.3351180497        1.5310523644        5.3651170237
  O        23.8662283359        3.1627043340        3.7217559123
  O        22.5658031833       22.9247145241        7.0001431487
  O         9.9597411998        9.1570542684        2.6578792916
  O         4.8931263869        5.8976773455        5.9212435015
  O        21.4059537375        7.5342556094        4.2883938008
  O        16.3242979248        4.2564922449        7.5669119656
  O        14.4079483205        8.8452661444        1.9938402719
  O         9.3239751985        5.5657061424        5.2730653217
  O        25.8488263875        7.1999133980        3.6160997333
  O        20.7565252344        3.9282564593        6.9022925512
  O         0.9847816539        3.8298781881        5.0418256938
  O        17.5007466324        5.4561934434        3.4070784381
  O        12.4059344220        2.1920650735        6.6915840462
  O        23.8578846410        0.5600882570        8.3109316172
  O         5.3325928819       10.9711320969        4.4703378534
  O        28.2082186111        7.6922732628        7.7437981976
  O        19.9496166598        1.1045541327        2.8320006199
  O        16.7513805298        9.3416720618        6.1234782427
  O        14.5047266707       11.4038045835        2.0738704141
  O         9.4226717895        8.1178083592        5.3551262557
  O        25.9477509079        9.7526019157        3.6947387427
  O        20.8696087824        6.4722698088        6.9883436447
  O        16.2296857266        9.9501507318        3.2997679685
  O        11.1504342103        6.6655381480        6.5817856597
  O        27.6647880763        8.3080967791        4.9203178466
  O        22.5902498898        5.0376282006        8.2099776567
  P        15.3311174148       10.0654305837        1.9996818468
  P        10.2649065833        6.8102773780        5.3187892634
  P        26.7679342231        8.4450342224        3.6798707560
  P        21.6834100349        5.1889038307        6.9897666367
 Ca        10.4868291572        4.4715679771        3.3286861536
 Ca         5.4013829257        1.1848471175        6.6192594045
 Ca        26.9872825516        6.0958973847        1.7059703251
 Ca        21.9263220021        2.8099039231        4.9951096800
  O         1.2236255530        3.5322169306        2.5125739977
  O        17.7525304991        5.1718378380        0.8813940952
  O        12.6510902203        1.9039993888        4.1598319298
  O        24.1029673626        0.2611952810        5.7881918504
  O        28.4098193931        5.7519853759        3.5277692348
  O        16.9773553255        7.3852900125        1.8969770722
  O        11.8857096816        4.1195959618        5.1848060778
  O        23.3336165144        2.4832254880        6.8132154114
  P         1.3672945517        4.5095228748        3.6999834883
  P        17.8756892273        6.1469629607        2.0330540104
  P        12.8307137896        2.8763434801        5.3489820141
  P        24.2218861872        1.2366669775        7.0249965539
 Ca         8.1383013439        7.7884748433        3.0012125239
 Ca         3.0461941864        4.5252740953        6.2976682598
 Ca        24.6161081477        9.4276629427        1.3798743592
 Ca        19.5544945865        6.1700993164        4.6607050484
  O         7.7538174481       10.4889401415        5.1338698045
  O         2.6707318561        7.2147005459        8.3965234510
  O        22.3765830936        0.6154658612        3.4840210901
  O        19.1786580829        8.8614215788        6.7573726606
  O         6.7937765050        9.7120649875        2.8883756470
  O         1.7211940408        6.4298446413        6.1505495272
  O        25.2332347574       22.8484618703        1.2411982923
  O        18.2313013574        8.0808695655        4.5262139655
  P         6.7951893381       10.8224767034        3.9483606626
  P         1.7113850764        7.5600577308        7.3149367080
  P        21.3928047389        0.9523611328        2.3031524754
  P        18.2576154010        9.1817530984        5.6346667134
 Ca         2.9817057735        1.6640871198        3.3640477239
 Ca        19.4814573163        3.2941370362        1.7066929223
 Ca        14.4220741435        0.0199966106        4.9887683932
 Ca        27.7448629031        9.9010818098        6.6763254922
  O        17.2383828316        0.0725963186        2.2224679665
  O        14.0607597632        8.3022620231        5.5111759715
  O         2.6378391387        9.9365903165        3.8544776266
  O        25.5035748869        6.6504619978        7.1379947169
  O        15.5175128124        1.5064950988        0.9987658583
  O        12.3426564260        9.7464366620        4.2819866010
  O        28.8586891970       11.3881002815        2.6283269941
  O        23.7800237629        8.1055614676        5.9150688116
  P        16.4255067698        1.3538854657        2.2170672943
  P        13.2412254874        9.6113119530        5.5355587455
  P        29.7433265980       11.2431946520        3.8888414704
  P        24.6786777036        7.9892185107        7.2058136620
 Ca         4.7511791746        5.3571420408        2.5894522168
 Ca        16.1816793515        3.7334094882        4.2125104685
 Ca        11.1225992320        0.4397220963        7.5102812896
 Ca        27.6146984889        2.0797140270        5.8722607707
  O        14.0034913439        6.2816506020        3.4200082939
  O         8.9356693293        3.0093888711        6.6941557168
  O        25.4584360824        4.6404456312        5.0540239898
  O        20.3540675784        1.3723121530        8.3286879545
  O        14.7723583678        4.0601767093        2.4004282394
  O         9.6968471718        0.7937885921        5.6806274100
  O        26.2253007830        2.4201643623        4.0240845215
  O        24.9326131035       22.1801912693        7.3120278815
  P        13.8908214078        5.3076657897        2.1795759699
  P         8.7914182969        2.0310318457        5.5110068313
  P        25.2691550553        3.6694253900        3.8555809198
  P        20.2337562669        0.3963383816        7.1773441419
 Ca         7.1096559579        2.0133401279        2.9120288694
 Ca         3.9278799769       10.2592598938        6.2040145192
 Ca        18.5541508345        0.3732521395        4.5473910286
 Ca        15.3852696465        8.6317773706        7.8351211754
  O         9.3916526012       10.8376208986        0.8139206105
  O         4.3068951422        7.5646064438        4.0770958427
  O        20.8273794756        9.1972584113        2.4504348150
  O        15.7299079335        5.9272304135        5.7220884835
  O        10.3389337389       11.6244761847        3.0599061673
  O         5.2676068096        8.3428645473        6.3209195748
  O        21.7765369816        9.9763040383        4.6818086747
  O        16.6804777785        6.7126824689        7.9654947507
  P        10.3458960535       10.5007729421        1.8916045002
  P         5.2615117823        7.2326573411        5.2619843646
  P        21.7551084686        8.8638734785        3.5745616762
  P        16.7156873427        5.5972673772        6.9082908442
 Ca        12.2681228973        8.1572694121        2.5415828050
 Ca         7.1751270486        4.8776779704        5.8476275518
 Ca        23.6781485732        6.5148879437        4.2007270041
 Ca        18.6274666641        3.2488299598        7.5013314194
 Ca        13.3590668998        2.1556852868        1.8629318665
 Ca        10.1604691627       10.3939098219        5.1452369019
 Ca        24.7533064927        0.5237679225        3.5303140691
 Ca        21.5817742760        8.7573379432        6.8065957385
 Ca         4.4422446143        9.2894956847        2.4216904234
 Ca        15.8760904966        7.6493520429        4.0478378457
 Ca        10.7840066041        4.3779991281        7.3342299018
 Ca        27.3007647487        6.0333364038        5.7131967602
 Ca         1.9000853946        7.6598215100        4.0654619622
 Ca        18.4283131889        9.2970892450        2.4008175134
 Ca        13.3532080453        6.0226436064        5.6791525841
 Ca        24.7495773866        4.3877115714        7.3452094134
 Ca        10.8064196410        0.5089283608        3.4967799516
 Ca         7.6184512767        8.7657549513        6.7878411704
 Ca        27.3213467895        2.1675333346        1.8756197509
 Ca        24.1325858496       10.4049281803        5.1608667163
  O         4.2950428192        2.8541048243        5.0247915191
  O        30.7328137339       22.3669152402        8.5474677727
  O        20.7815608674        4.4800352298        3.3911870751
  O        15.7143421948        1.2132237053        6.6737335588
  H         4.8774479382        3.1339032011        4.7448636267
  H        31.4272411448       22.8148386261        8.1072645588
  H        21.3835880237        4.7569522324        3.1118583145
  H        16.3097243806        1.4964119111        6.4003365377
  O         6.7972419115        4.4760687517        3.3954224657
  O         1.7516346862        1.2176873179        6.6712149980
  O        18.2627630718        2.8510778293        5.0278747564
  O        16.7554987053       22.3672586921        8.5510470063
  H         7.4037540758        4.7522070105        3.1111917053
  H         2.3369296844        1.4971427540        6.3923829617
  H        18.8499702654        3.1325242224        4.7445315694
  H        17.4460293154       22.8089452645        8.1113794445
  O         5.8608546495        3.6871578095        4.1857670873
  O         0.8084796293        0.4240438502        7.4623502507
  O        22.6155133042        5.5659035923        2.3044774925
  O        17.3064197698        2.0557441163        5.8253798993
  H         5.2831531093        3.4109596590        4.4635045118
  H         0.2113790909        0.1516295571        7.7494466232
  H        21.9220371909        5.1187388343        2.7435421792
  H        16.7169290258        1.7766439615        6.1066657223
  O         8.6423505936        5.5675625859        2.3026299781
  O         3.3250747505        2.0531591460        5.8274596458
  O        19.8462691854        3.6919877933        4.1804668713
  O        14.8111766486        0.4368987623        7.4496543468
  H         7.9482792035        5.1195172498        2.7423135581
  H         2.7434876906        1.7751569217        6.1133526307
  H        19.2596079858        3.4140402789        4.4630605724
  H        14.1878576325        0.1585204752        7.7434128742
  O        18.1504777249       21.5392212366        0.7999649744
  O        13.0639720354       18.2623392879        4.0837265855
  O        29.5861128864       19.8951239340        2.4230922225
  O        24.5085580585       16.6220281758        5.7073426231
  O         4.7248953294       16.5249857290        3.8461661356
  O        21.2432964883       18.1537479910        2.2067111200
  O        16.1447564385       14.8860044013        5.4880830136
  O        27.6137052839       13.2721681781        7.1259372198
  O         5.2660316882        0.6473876819        3.2890615635
  O         4.0060720190       20.4049949758        6.5514560319
  O        23.6823958837       13.7932210291        1.6423106990
  O        20.5006923204       22.0365343159        4.9214727806
  O        19.2527709367       14.1248768696        2.3080932592
  O        16.0633478812       22.3665234012        5.5854518355
  O         0.8328696225        0.9762639246        3.9388590438
  O        27.5001985455       20.7200541416        7.2187960796
  O        16.1485686685       17.4973055926        0.8978837888
  O        11.0747673344       14.2272478882        4.1645920638
  O        27.6097447128       15.8620829324        2.5183954052
  O        22.5076569703       12.5977295871        5.8020050354
  O        13.7041216056       21.8682793873        1.4634962393
  O         8.6310358643       18.5938162924        4.7369511630
  O        25.1616657621       20.2318976258        3.0857785513
  O        20.0590011655       16.9489113907        6.3748110618
  O        17.3999279049       12.9440665570        3.5021509971
  O        14.2242206427       21.1835551109        6.7793021336
  O        30.7508373096       22.8166915900        5.1260476774
  O        25.6616709133       19.5364720375        8.4109942554
  O        14.2944680551       16.2980093746        2.0848798866
  O         9.2369993168       13.0420877133        5.3651717807
  O        25.7681036315       14.6746968722        3.7217636142
  O        20.6645764773       11.4124904134        7.0001377608
  O        11.8615575597       20.6686922753        2.6580502678
  O         6.7951487792       17.4088672486        5.9211329878
  O        23.3079740187       19.0462040839        4.2884825552
  O        18.2263814138       15.7677025869        7.5667795251
  O        16.3099904472       20.3564622171        1.9938869613
  O        11.2259629275       17.0776359477        5.2729567929
  O        27.7510444379       18.7111301005        3.6160854057
  O        22.6575355308       15.4399535535        6.9023157380
  O         2.8867140999       15.3417502268        5.0419269762
  O        19.4026739214       16.9681595146        3.4071122424
  O        14.3070129744       13.7032204752        6.6913128503
  O        25.7598170254       12.0711419265        8.3109320199
  O         7.2345956024       22.4830550844        4.4704026658
  O        30.1096193535       19.2041908208        7.7436665636
  O        21.8513981664       12.6164807363        2.8320823232
  O        18.6533211942       20.8536407451        6.1234885433
  O        16.4067502636       22.9157739269        2.0739027474
  O        11.3245716569       19.6290931221        5.3550698819
  O        27.8496263299       21.2639327203        3.6947960427
  O        22.7708711611       17.9837700570        6.9883480190
  O        18.1316171354       21.4611978564        3.2996834450
  O        13.0525102228       18.1765057060        6.5817447253
  O        29.5668173263       19.8192039166        4.9203033966
  O        24.4913142166       16.5494662309        8.2099827031
  P        17.2328406910       21.5771068115        1.9997948740
  P        12.1669451844       18.3220229253        5.3188639645
  P        28.6699104119       19.9565122234        3.6798408071
  P        23.5846099979       16.7007184776        6.9895896843
 Ca        12.3887806259       15.9826261506        3.3287147570
 Ca         7.3033985778       12.6968240815        6.6192952683
 Ca        28.8892578092       17.6069618150        1.7059855468
 Ca        23.8281889105       14.3217546673        4.9949954525
  O         3.1245930289       15.0442274136        2.5125553613
  O        19.6535881149       16.6829602350        0.8814456411
  O        14.5530258876       13.4159493175        4.1598096842
  O        26.0049595303       11.7730479267        5.7879966414
  O        30.3117523653       17.2640633519        3.5277668045
  O        18.8794011844       18.8974506051        1.8970524970
  O        13.7869223817       15.6314257415        5.1848631410
  O        25.2354363975       13.9942358550        6.8132838299
  P         3.2687139284       16.0214932206        3.6999469224
  P        19.7769727788       17.6591504741        2.0330754480
  P        14.7323772890       14.3882233972        5.3491792014
  P        26.1237629066       12.7478343342        7.0250563402
 Ca        10.0393453702       19.3004276384        3.0012292899
 Ca         4.9481142875       16.0362702678        6.2976728742
 Ca        26.5170990876       20.9395970791        1.3798799938
 Ca        21.4564655039       17.6811451334        4.6606494031
  O         9.6558623644       22.0009016439        5.1338065898
  O         4.5718931846       18.7255605998        8.3967194356
  O        24.2784489766       12.1264807205        3.4838918315
  O        21.0805609990       20.3724804452        6.7573190638
  O         8.6949242460       21.2238681374        2.8882365661
  O         3.6232200254       17.9408529861        6.1505781671
  O        23.3317887719       11.3370686478        1.2410080884
  O        20.1332847426       19.5926511462        4.5260122301
  P         8.6970898851       22.3340322902        3.9484052297
  P         3.6128944645       19.0712406114        7.3147892554
  P        23.2943336116       12.4639162817        2.3032346946
  P        20.1598788544       20.6931574110        5.6348885122
 Ca         4.8836466439       13.1760854039        3.3640623013
 Ca        21.3834773807       14.8051391229        1.7066507316
 Ca        16.3239725891       11.5320540153        4.9887366313
 Ca        29.6469398046       21.4131823106        6.6763482603
  O        19.1404840352       11.5842335355        2.2224836361
  O        15.9627977534       19.8141654316        5.5111675515
  O         4.5398722763       21.4485593642        3.8544927830
  O        27.4055666520       18.1623006865        7.1380027369
  O        17.4186682128       13.0184417610        0.9989585456
  O        14.2446570100       21.2583889648        4.2819347896
  O        30.7607011143       22.8991270086        2.6283193545
  O        25.6812832987       19.6175051052        5.9153249863
  P        18.3272429390       12.8651312475        2.2168723448
  P        15.1429129105       21.1229995733        5.5357089322
  P        31.6450226061       22.7549073691        3.8890128501
  P        26.5806234978       19.5006831544        7.2054498470
 Ca         6.6521435790       16.8691070059        2.5894691480
 Ca        18.0837424236       15.2453557789        4.2125724563
 Ca        13.0245787479       11.9507867079        7.5102492733
 Ca        29.5166170889       13.5917478022        5.8722414212
  O        15.9054277519       17.7926165320        3.4199019517
  O        10.8375851135       14.5212458156        6.6939585549
  O        27.3604568655       16.1515360924        5.0541066933
  O        22.2552190081       12.8842046872        8.3286984867
  O        16.6740317767       15.5713713021        2.4003209807
  O        11.5981914434       12.3053265917        5.6807048037
  O        28.1264451585       13.9310035169        4.0241305532
  O        23.0312756272       10.6691296448        7.3121608084
  P        15.7922093400       16.8187048831        2.1795546537
  P        10.6932389488       13.5425825898        5.5111280132
  P        27.1710545640       15.1806006202        3.8555633482
  P        22.1353887720       11.9085043287        7.1771526917
 Ca         9.0107197211       13.5253518346        2.9120309975
 Ca         5.8299293102       21.7712151719        6.2040627796
 Ca        20.4561218462       11.8845329627        4.5474345214
 Ca        17.2862733919       20.1428098549        7.8351243398
  O        11.2927416812       22.3495912473        0.8140042896
  O         6.2088700097       19.0765918812        4.0771018049
  O        22.7294667118       20.7092362136        2.4504524703
  O        17.6318186221       17.4383253853        5.7220004970
  O         8.4375160009        0.1131866749        3.0597807860
  O         7.1694926853       19.8540070964        6.3209879906
  O        23.6785333822       21.4883756890        4.6818322291
  O        18.5814710716       18.2238685715        7.9656377555
  P        12.2470274447       22.0123852627        1.8915319438
  P         7.1635483490       18.7442618805        5.2620168494
  P        23.6568697896       20.3758503505        3.5744148581
  P        18.6176714461       17.1087296709        6.9083618697
 Ca        14.1691689651       19.6683258223        2.5415898087
 Ca         9.0772380895       16.3897557718        5.8476519016
 Ca        25.5800973050       18.0259825427        4.2006607665
 Ca        20.5292863405       14.7608366313        7.5013426448
 Ca        15.2601596051       13.6676814311        1.8629169502
 Ca        12.0624628737       21.9058579938        5.1453023238
 Ca        26.6552489674       12.0348080563        3.5302839060
 Ca        23.4837521422       20.2684354632        6.8064610797
 Ca         6.3432554224       20.8005445286        2.4216546595
 Ca        17.7781348597       19.1603323110        4.0478081548
 Ca        12.6859473790       15.8900601287        7.3342614964
 Ca        29.2027451432       17.5453546202        5.7132067952
 Ca         3.8020588628       19.1718354174        4.0654826159
 Ca        20.3303229675       20.8089036035        2.4008430319
 Ca        15.2551745071       17.5337125286        5.6791749776
 Ca        26.6507052335       15.8987351296        7.3451908320
 Ca        12.7084359881       12.0209199154        3.4968212071
 Ca         9.5195162487       20.2776565454        6.7880232787
 Ca        29.2233051552       13.6794923852        1.8756593369
 Ca        26.0336052497       21.9168275456        5.1608324117
  O         6.1960294872       14.3664049946        5.0247531606
  O        28.8316506675       10.8549769635        8.5473745444
  O        22.6825431134       15.9922942698        3.3911319097
  O        17.6162098250       12.7241258692        6.6737397936
  H         6.7790049588       14.6444928591        4.7444026320
  H        29.5254807090       11.3035944835        8.1074888322
  H        23.2847613853       16.2686996577        3.1118660055
  H        18.2116640876       13.0071353237        6.4005458355
  O         8.6989012665       15.9880538587        3.3956026246
  O         3.6537865498       12.7285731833        6.6712054661
  O        20.1641127681       14.3628899983        5.0283258585
  O        14.8532172932       10.8553221080        8.5510155838
  H         9.3058547789       16.2638899999        3.1111921184
  H         4.2390236982       13.0083593907        6.3923732796
  H        20.7521131377       14.6430738368        4.7445229235
  H        15.5435152512       11.2978340614        8.1114278717
  O         7.7629955389       15.1981508476        4.1856805491
  O         2.7096423076       11.9366073368        7.4621064800
  O        24.5177191499       17.0769747405        2.3043637283
  O        19.2081856552       13.5671715000        5.8247462202
  H         7.1850591718       14.9220110219        4.4634858567
  H         2.1135561622       11.6617951860        7.7496335517
  H        23.8237449081       16.6305132755        2.7437617479
  H        18.6191393074       13.2876561371        6.1073409831
  O        10.5437391434       17.0787952525        2.3023685079
  O         5.2268493041       13.5638028713        5.8276648978
  O        21.7483624958       15.2027581897        4.1805760784
  O        16.7128532278       11.9491853458        7.4498370761
  H         9.8498659348       16.6312309368        2.7426169063
  H         4.6445314918       13.2867459867        6.1131568939
  H        21.1608519542       14.9258856596        4.4626871272
  H        16.0904163096       11.6688687487        7.7431721463
  O        16.2412759725       10.0048940139       15.5285439923
  C        15.5408777117       11.2103146952       15.5613915446
  O        14.8407341358       12.4183929307       15.5934814133
     387
 i =        3, E =     -6912.3316843918
  O        16.2501968507       10.0285072046        0.7993573460
  O        11.1617018899        6.7503277949        4.0839132355
  O        27.6840725039        8.3827295484        2.4222757613
  O        22.6064176215        5.1102174666        5.7083847641
  O         2.8235396498        5.0141746831        3.8455768159
  O        19.3405992011        6.6423436951        2.2064756507
  O        14.2426904526        3.3758213209        5.4875975104
  O        25.7117548529        1.7607855883        7.1252996434
  O         7.1681818829       12.1594040915        3.2889230561
  O         2.1041577758        8.8930233424        6.5507020147
  O        21.7804307256        2.2814150468        1.6419086017
  O        18.5986367913       10.5237581783        4.9211463071
  O        17.3504618472        2.6130623897        2.3077795271
  O        14.1602828273       10.8552525787        5.5851696320
  O         2.7348267081       12.4878784951        3.9376743892
  O        25.5985885897        9.2084779167        7.2182589366
  O        14.2468526381        5.9865265461        0.8962946333
  O         9.1722865662        2.7157990159        4.1650603314
  O        25.7090146260        4.3510152127        2.5175614210
  O        20.6064345395        1.0850456587        5.8032795354
  O        11.8032882670       10.3562219846        1.4637810435
  O         6.7285287294        7.0829903708        4.7378035708
  O        23.2592581414        8.7208845891        3.0853246639
  O        18.1567235722        5.4370499090        6.3747797027
  O        15.4984621179        1.4331904071        3.5006107765
  O        12.3224381704        9.6726642068        6.7795027664
  O        28.8498147721       11.3055614550        5.1257827609
  O        23.7590431928        8.0250077099        8.4114757662
  O        12.3937158687        4.7859520198        2.0852575213
  O         7.3343422612        1.5308705739        5.3660504138
  O        23.8657580724        3.1619946072        3.7215510836
  O        22.5673722596       22.9245559692        7.0007291743
  O         9.9598135606        9.1576600240        2.6576916558
  O         4.8933020245        5.8968331844        5.9215564657
  O        21.4065764423        7.5345845223        4.2883448120
  O        16.3245745053        4.2569228860        7.5668586123
  O        14.4075050947        8.8450145988        1.9945122941
  O         9.3235487578        5.5660137680        5.2740873003
  O        25.8493121748        7.1997341187        3.6154303838
  O        20.7570140859        3.9292061874        6.9028502867
  O         0.9850187959        3.8302704856        5.0419234265
  O        17.5010842899        5.4568047795        3.4055444809
  O        12.4043728423        2.1927790876        6.6914649777
  O        23.8575099189        0.5591438424        8.3120424371
  O         5.3328728381       10.9710645732        4.4699404860
  O        28.2075568694        7.6919180160        7.7429756822
  O        19.9500479770        1.1045548148        2.8315291885
  O        16.7527916785        9.3408602212        6.1226600560
  O        14.5048769575       11.4042090233        2.0743332370
  O         9.4222195830        8.1179679320        5.3558538386
  O        25.9480222862        9.7525617978        3.6940722807
  O        20.8692832308        6.4731658424        6.9884374558
  O        16.2290650180        9.9500100085        3.2987509618
  O        11.1504815536        6.6646881756        6.5829660481
  O        27.6653230638        8.3079579176        4.9202473245
  O        22.5910552833        5.0376622480        8.2107884478
  P        15.3308987468       10.0662856785        2.0008043961
  P        10.2649569669        6.8100637396        5.3187329586
  P        26.7677269301        8.4450006736        3.6792670439
  P        21.6836181647        5.1872193040        6.9880564948
 Ca        10.4872189316        4.4726357210        3.3282200058
 Ca         5.4012440593        1.1850102303        6.6182490038
 Ca        26.9867998341        6.0960978756        1.7079762751
 Ca        21.9255053838        2.8102508476        4.9948442613
  O         1.2234935548        3.5316254696        2.5118256976
  O        17.7531550447        5.1707738180        0.8805151785
  O        12.6503191809        1.9041708490        4.1593899079
  O        24.1034495057        0.2614810685        5.7884553860
  O        28.4098321298        5.7521008731        3.5271478174
  O        16.9771358004        7.3858959368        1.8970228083
  O        11.8847623603        4.1202682525        5.1856579926
  O        23.3338319853        2.4834253090        6.8131746515
  P         1.3670949262        4.5092245669        3.7009808991
  P        17.8762813935        6.1468225138        2.0355490227
  P        12.8309686312        2.8756515461        5.3503367178
  P        24.2236075497        1.2372974916        7.0238464348
 Ca         8.1396510597        7.7882322346        3.0008378320
 Ca         3.0459142177        4.5258918129        6.2971071201
 Ca        24.6139518151        9.4287463126        1.3816284224
 Ca        19.5547651531        6.1693490084        4.6604650988
  O         7.7535872796       10.4889365114        5.1341251380
  O         2.6723735209        7.2134926302        8.3973610033
  O        22.3770493851        0.6153307656        3.4834508924
  O        19.1807227249        8.8607956121        6.7590779073
  O         6.7932292705        9.7110860284        2.8879254026
  O         1.7213124763        6.4296692876        6.1502619100
  O        25.2344949186       22.8468757830        1.2406639057
  O        18.2314295545        8.0809029007        4.5259807973
  P         6.7949077996       10.8225020147        3.9485999126
  P         1.7109706364        7.5610002859        7.3136641154
  P        21.3923327666        0.9533444623        2.3032820201
  P        18.2540030482        9.1838427170        5.6335860142
 Ca         2.9817293250        1.6642354644        3.3659774659
 Ca        19.4818802279        3.2942918077        1.7077805888
 Ca        14.4231002978        0.0200079551        4.9897114082
 Ca        27.7447070158        9.9010940473        6.6779840921
  O        17.2388066922        0.0716756152        2.2225218977
  O        14.0602803848        8.3020971882        5.5117242673
  O         2.6383890892        9.9362468484        3.8538328099
  O        25.5033275696        6.6500146791        7.1376567235
  O        15.5166190644        1.5065458731        0.9976685389
  O        12.3419565674        9.7464529755        4.2814715920
  O        28.8583674686       11.3887990021        2.6270422218
  O        23.7804340832        8.1054542917        5.9152429072
  P        16.4250155773        1.3555544433        2.2193438000
  P        13.2418298718        9.6119686923        5.5364716878
  P        29.7432215953       11.2434917750        3.8895277339
  P        24.6790146233        7.9884623802        7.2054114269
 Ca         4.7519495119        5.3569940515        2.5906003498
 Ca        16.1824527730        3.7328494916        4.2131194212
 Ca        11.1245068498        0.4384547084        7.5098042442
 Ca        27.6143017269        2.0781182647        5.8730808378
  O        14.0029520394        6.2813203642        3.4197335573
  O         8.9356943066        3.0102948395        6.6949313005
  O        25.4590048074        4.6400660222        5.0539597808
  O        20.3535273664        1.3732669761        8.3295037177
  O        14.7719164961        4.0600121224        2.4005795585
  O         9.6964352516        0.7938203130        5.6811784625
  O        26.2256401983        2.4201831904        4.0229686375
  O        24.9329344492       22.1793495268        7.3122146525
  P        13.8895135163        5.3070129178        2.1809293334
  P         8.7920743113        2.0311831555        5.5096309412
  P        25.2699891409        3.6696278043        3.8556338801
  P        20.2326745270        0.3966332307        7.1747254070
 Ca         7.1100665653        2.0132589441        2.9127148520
 Ca         3.9257665935       10.2596385748        6.2050732124
 Ca        18.5536088872        0.3743157144        4.5477513573
 Ca        15.3865068299        8.6326064156        7.8343033146
  O         9.3896754458       10.8387711739        0.8122236686
  O         4.3069946470        7.5646337702        4.0768090721
  O        20.8262333362        9.1976601207        2.4492387834
  O        15.7297685562        5.9271863402        5.7225309064
  O        10.3387225636       11.6241603963        3.0594892799
  O         5.2682083904        8.3436650340        6.3214785515
  O        21.7767677738        9.9756511171        4.6813711522
  O        16.6797452624        6.7136267998        7.9659134609
  P        10.3469977598       10.4997878454        1.8939544791
  P         5.2623460390        7.2325884202        5.2617290052
  P        21.7567180692        8.8634981888        3.5754381956
  P        16.7156362343        5.5962234307        6.9082329455
 Ca        12.2687576654        8.1576646398        2.5409866853
 Ca         7.1750730579        4.8775645310        5.8454203659
 Ca        23.6770793873        6.5148478070        4.2006790356
 Ca        18.6269490403        3.2486333552        7.5000996253
 Ca        13.3610521385        2.1556144465        1.8631929937
 Ca        10.1615009368       10.3936692596        5.1441074332
 Ca        24.7523750829        0.5240371951        3.5318682784
 Ca        21.5814144381        8.7571319263        6.8069476575
 Ca         4.4426245601        9.2896922941        2.4224761363
 Ca        15.8765910447        7.6492930385        4.0476351090
 Ca        10.7843860693        4.3774954320        7.3320103039
 Ca        27.3004793921        6.0346853063        5.7139448078
 Ca         1.8994694299        7.6601226790        4.0668664742
 Ca        18.4285574182        9.2973589241        2.4006925673
 Ca        13.3543716411        6.0223615990        5.6777640875
 Ca        24.7476362519        4.3877133194        7.3452256748
 Ca        10.8069965723        0.5076221951        3.4965317183
 Ca         7.6179373712        8.7656218552        6.7870506129
 Ca        27.3213611645        2.1676800791        1.8775964209
 Ca        24.1320295020       10.4051661983        5.1614195661
  O         4.2653131428        2.8391826433        5.0399896550
  O        30.7296753900       22.3648060195        8.5483487154
  O        20.7543511958        4.4686033889        3.4020445464
  O        15.6729589007        1.1934493613        6.6912604680
  H         4.8934855570        3.1358206176        4.7430039038
  H        31.4204106970       22.8109459431        8.1122372142
  H        21.4119970503        4.7661426854        3.1025586649
  H        16.3274176901        1.4971608028        6.4018775961
  O         6.7848990294        4.4727240570        3.3976991645
  O         1.7175036074        1.2004884586        6.6880048676
  O        18.2312911073        2.8353153723        5.0439607159
  O        16.7514817645       22.3652000770        8.5522508557
  H         7.4296255074        4.7618833214        3.1016672672
  H         2.3541074579        1.4991878858        6.3913832896
  H        18.8665011953        3.1342877468        4.7425029089
  H        17.4411809499       22.8055014165        8.1152887576
  O         5.8886510776        3.6995787283        4.1731074837
  O         0.8347079651        0.4329858144        7.4498630630
  O        22.6188482299        5.5681732477        2.3033048075
  O        17.3373814896        2.0706577415        5.8108131808
  H         5.2654830348        3.4079514246        4.4664921503
  H         0.1825278917        0.1425599525        7.7604944840
  H        21.9282087642        5.1228859246        2.7388038766
  H        16.7010638351        1.7753409949        6.1075953430
  O         8.6455934252        5.5700881681        2.3010613920
  O         3.3538239037        2.0679690178        5.8126583118
  O        19.8823429897        3.7090072254        4.1627558273
  O        14.8352215707        0.4460792042        7.4384787400
  H         7.9535188120        5.1233188871        2.7384093898
  H         2.7268346506        1.7729717001        6.1157156559
  H        19.2405590229        3.4118666544        4.4657037696
  H        14.1672435000        0.1543400764        7.7498749910
  O        18.1513055499       21.5394584766        0.7991820039
  O        13.0637446031       18.2623423819        4.0838886767
  O        29.5860968384       19.8946668326        2.4222735153
  O        24.5081853259       16.6220313623        5.7085950270
  O         4.7253684000       16.5251087581        3.8455194268
  O        21.2422733941       18.1540169868        2.2062420878
  O        16.1447106074       14.8869195434        5.4876348883
  O        27.6130899363       13.2728227251        7.1253048577
  O         5.2657133404        0.6480932562        3.2889402615
  O         4.0061565705       20.4040172833        6.5507260474
  O        23.6822981392       13.7930934628        1.6420544779
  O        20.5005381540       22.0356113642        4.9212251759
  O        19.2524687639       14.1241092747        2.3077682927
  O        16.0624138870       22.3664832191        5.5852331380
  O         0.8334823228        0.9759670467        3.9377531152
  O        27.5004001684       20.7202036112        7.2183042941
  O        16.1488710830       17.4984387430        0.8964681065
  O        11.0743090780       14.2268678070        4.1650088092
  O        27.6111002421       15.8619727746        2.5175304697
  O        22.5075938922       12.5971374829        5.8032717180
  O        13.7044012287       21.8682212585        1.4637327593
  O         8.6304928702       18.5939706791        4.7377638214
  O        25.1613308520       20.2320099078        3.0853103096
  O        20.0587110490       16.9490481150        6.3748322756
  O        17.4004349172       12.9442170179        3.5006626542
  O        14.2236253589       21.1838081393        6.7793264496
  O        30.7509462930       22.8166110410        5.1255663373
  O        25.6609758512       19.5360608010        8.4116054969
  O        14.2946857769       16.2978135554        2.0852655043
  O         9.2362291544       13.0419161729        5.3661050447
  O        25.7676181596       14.6739904149        3.7215558141
  O        20.6661216856       11.4123396007        7.0007186276
  O        11.8616312964       20.6693212848        2.6578491697
  O         6.7953297023       17.4080287730        5.9214427549
  O        23.3085877931       19.0465296293        4.2884303336
  O        18.2266544422       15.7681240038        7.5667364136
  O        16.3095389320       20.3562072026        1.9945617227
  O        11.2255332234       17.0779414680        5.2739818912
  O        27.7515236297       18.7109410545        3.6154166987
  O        22.6580514370       15.4409206222        6.9028682031
  O         2.8869534948       15.3421459663        5.0420170519
  O        19.4030089845       16.9687695318        3.4055779226
  O        14.3054583016       13.7039283942        6.6912039701
  O        25.7594472441       12.0701913018        8.3120478680
  O         7.2348712522       22.4829871151        4.4700140953
  O        30.1089512666       19.2038334267        7.7428479150
  O        21.8518367070       12.6164776279        2.8316087539
  O        18.6547467973       20.8528167057        6.1226646258
  O        16.4069042243       22.9161728927        2.0743687954
  O        11.3241154383       19.6292536765        5.3558050499
  O        27.8499056480       21.2638807718        3.6941295759
  O        22.7705314633       17.9847083121        6.9884388545
  O        18.1309973702       21.4610541925        3.2986704888
  O        13.0525611092       18.1756550636        6.5829294121
  O        29.5673534901       19.8190712369        4.9202356083
  O        24.4921148719       16.5495008288        8.2107901760
  P        17.2326239066       21.5779646320        2.0009064126
  P        12.1669989589       18.3218134919        5.3187929853
  P        28.6697041035       19.9565096710        3.6792361203
  P        23.5848138333       16.6989736946        6.9879045994
 Ca        12.3891613454       15.9836958756        3.3282480620
 Ca         7.3032596038       12.6969843001        6.6182841793
 Ca        28.8887769324       17.6071654576        1.7079925447
 Ca        23.8273815896       14.3221090204        4.9947366093
  O         3.1244603658       15.0436326145        2.5118055708
  O        19.6542051897       16.6819164469        0.8805887330
  O        14.5522536151       13.4161239319        4.1593675214
  O        26.0054348774       11.7733299728        5.7882684356
  O        30.3117672353       17.2641714686        3.5271471169
  O        18.8791680584       18.8980661069        1.8970960441
  O        13.7859819035       15.6321008734        5.1857164316
  O        25.2356429676       13.9944490271        6.8132401606
  P         3.2685074969       16.0211851325        3.7009524102
  P        19.7775700564       17.6589649704        2.0355459825
  P        14.7326463761       14.3875267751        5.3505185370
  P        26.1255059518       12.7484711005        7.0238959653
 Ca        10.0406976645       19.3001817252        3.0008515071
 Ca         4.9478403781       16.0368906857        6.2971105136
 Ca        26.5149466341       20.9406803102        1.3816332063
 Ca        21.4567445430       17.6804020895        4.6604119444
  O         9.6556352672       22.0008916068        5.1340634502
  O         4.5735244163       18.7243613484        8.3975459066
  O        24.2789108148       12.1263475651        3.4833267500
  O        21.0826454739       20.3718558347        6.7590459317
  O         8.6943809708       21.2228973680        2.8877967353
  O         3.6233366626       17.9406779291        6.1502936152
  O        23.3330504401       11.3354988665        1.2404833501
  O        20.1334198106       19.5926886333        4.5257937735
  P         8.6968007433       22.3340395715        3.9486348968
  P         3.6125097307       19.0721704696        7.3135285973
  P        23.2938539340       12.4648661206        2.3033568500
  P        20.1562188220       20.6952533467        5.6337690953
 Ca         4.8836692882       13.1762315986        3.3659924846
 Ca        21.3839000914       14.8052973995        1.7077428116
 Ca        16.3249990846       11.5320593662        4.9896776698
 Ca        29.6467718007       21.4131833196        6.6780057593
  O        19.1408984827       11.5833235635        2.2225330035
  O        15.9623178377       19.8139939362        5.5117172193
  O         4.5404177487       21.4482106321        3.8538524675
  O        27.4053243121       18.1618520447        7.1376589174
  O        17.4177688020       13.0184892321        0.9978564890
  O        14.2439523385       21.2583987325        4.2814201274
  O        30.7603796088       22.8998241266        2.6270346501
  O        25.6816934418       19.6173960760        5.9154825635
  P        18.3267537085       12.8667901255        2.2191657180
  P        15.1435393731       21.1236670082        5.5366078210
  P        31.6449365974       22.7552060963        3.8896780855
  P        26.5809448750       19.4999138281        7.2050871101
 Ca         6.6529200182       16.8689585420        2.5906135334
 Ca        18.0845068669       15.2447936864        4.2131745438
 Ca        13.0264782163       11.9495197211        7.5097694204
 Ca        29.5162203454       13.5901425059        5.8730685016
  O        15.9048833362       17.7922844222        3.4196367152
  O        10.8376135520       14.5221656714        6.6947459721
  O        27.3610200837       16.1511628178        5.0540357127
  O        22.2546625133       12.8851753379        8.3295112932
  O        16.6735926472       15.5711974486        2.4004773109
  O        11.5977761072       12.3053731333        5.6812589812
  O        28.1267822262       13.9310341720        4.0230104245
  O        23.0315853134       10.6683124910        7.3123313104
  P        15.7909006906       16.8180639142        2.1808957050
  P        10.6938944505       13.5426997013        5.5097396565
  P        27.1719034599       15.1807993754        3.8556282451
  P        22.1343389609       11.9087547063        7.1745648058
 Ca         9.0111369904       13.5252659311        2.9127163398
 Ca         5.8278114964       21.7715940987        6.2051187824
 Ca        20.4555713795       11.8855789012        4.5477913482
 Ca        17.2875116917       20.1436466193        7.8343100276
  O        11.2907648232       22.3507457097        0.8123064175
  O         6.2089762605       19.0766183393        4.0768227804
  O        22.7283072712       20.7096423711        2.4492436006
  O        17.6316809409       17.4382821906        5.7224498411
  O         8.4373001717        0.1128819860        3.0593766899
  O         7.1700984074       19.8548103526        6.3215553370
  O        23.6787653294       21.4877069156        4.6813881659
  O        18.5807295738       18.2248119544        7.9660496433
  P        12.2481358287       22.0113695012        1.8938867839
  P         7.1643694193       18.7441829662        5.2617500148
  P        23.6585078573       20.3754665499        3.5753204023
  P        18.6176165250       17.1077093522        6.9082917693
 Ca        14.1698093528       19.6687258318        2.5409912950
 Ca         9.0771757511       16.3896334423        5.8454420180
 Ca        25.5790298434       18.0259495061        4.2006185845
 Ca        20.5287775435       14.7606368617        7.5001097534
 Ca        15.2621438470       13.6676063511        1.8631786435
 Ca        12.0634939829       21.9056130370        5.1441713415
 Ca        26.6543214891       12.0350786813        3.5318391213
 Ca        23.4833916003       20.2682192620        6.8068159565
 Ca         6.3436358962       20.8007430468        2.4224391103
 Ca        17.7786300740       19.1602759095        4.0476042153
 Ca        12.6863265703       15.8895498438        7.3320446741
 Ca        29.2024564523       17.5466974439        5.7139550308
 Ca         3.8014418342       19.1721352636        4.0668859454
 Ca        20.3305663544       20.8091765634        2.4007126636
 Ca        15.2563405812       17.5334332329        5.6777842794
 Ca        26.6487599132       15.8987354472        7.3452063424
 Ca        12.7090054553       12.0196101610        3.4965767695
 Ca         9.5190057559       20.2775294556        6.7872225268
 Ca        29.2233184696       13.6796372271        1.8776379413
 Ca        26.0330522134       21.9170713520        5.1613836812
  O         6.1662153560       14.3516994779        5.0399737845
  O        28.8284801136       10.8528379260        8.5482780677
  O        22.6552961011       15.9809828727        3.4019698749
  O        17.5749371240       12.7043893960        6.6911747826
  H         6.7950873321       14.6463090367        4.7424776680
  H        29.5186529421       11.2997453424        8.1124528549
  H        23.3131976870       16.2778748807        3.1025464659
  H        18.2294054280       13.0078974189        6.4020375715
  O         8.6865530165       15.9847812504        3.3979022332
  O         3.6196676277       12.7112419423        6.6880256944
  O        20.1325914416       14.3472527095        5.0445201967
  O        14.8492188890       10.8532634609        8.5522212043
  H         9.3316154460       16.2734929020        3.1017199905
  H         4.2561400673       13.0103289035        6.3914549758
  H        20.7686451180       14.6446377148        4.7425226364
  H        15.5386604821       11.2944351932        8.1153277479
  O         7.7908259600       15.2105189134        4.1730011150
  O         2.7356686036       11.9457950073        7.4496075009
  O        24.5210349569       17.0792211778        2.3031973007
  O        19.2390925945       13.5820893913        5.8099980638
  H         7.1674414797       14.9190469544        4.4664921241
  H         2.0848870651       11.6526047752        7.7606444866
  H        23.8299362673       16.6346737314        2.7390177219
  H        18.6034161445       13.2863833207        6.1083155051
  O        10.5469729731       17.0813132142        2.3008033038
  O         5.2556940749       13.5784528576        5.8129011337
  O        21.7844680531       15.2195587416        4.1629600488
  O        16.7367720860       11.9585157826        7.4387566611
  H         9.8551364813       16.6350622006        2.7386915390
  H         4.6278756824       13.2846905013        6.1154200084
  H        21.1416836500       14.9238383916        4.4652872560
  H        16.0697770018       11.6645035335        7.7496537212
  O        16.2366621199       10.0125996530       15.5287172352
  C        15.5409957193       11.2102398079       15.5613934684
  O        14.8453215890       12.4104288786       15.5933743324
     387
 i =        4, E =     -6913.2059070592
  O        16.2524940530       10.0294413993        0.7976740160
  O        11.1609381763        6.7500908501        4.0838323567
  O        27.6846178539        8.3811208450        2.4187003579
  O        22.6062180863        5.1096031708        5.7092278681
  O         2.8258014736        5.0145894152        3.8443264363
  O        19.3394142905        6.6426823595        2.2058325934
  O        14.2423368706        3.3780744368        5.4864596468
  O        25.7132794948        1.7642158857        7.1229071291
  O         7.1670624455       12.1625592664        3.2891626572
  O         2.1055473901        8.8925296924        6.5467588567
  O        21.7798803304        2.2822999896        1.6413500657
  O        18.5976072456       10.5231689191        4.9198428623
  O        17.3511856456        2.6122710069        2.3082057040
  O        14.1584595449       10.8564653036        5.5848621798
  O         2.7375882910       12.4881213291        3.9353925110
  O        25.5996623378        9.2089846226        7.2162440414
  O        14.2470711937        5.9896986634        0.8935594029
  O         9.1709573280        2.7157233037        4.1643298827
  O        25.7140735214        4.3512025550        2.5139943415
  O        20.6062056469        1.0848343640        5.8040608668
  O        11.8046820520       10.3559518533        1.4652613130
  O         6.7285468207        7.0828214028        4.7393062526
  O        23.2610261395        8.7209731372        3.0832051292
  O        18.1567728641        5.4362063480        6.3738812737
  O        15.4987168560        1.4341707547        3.4993398863
  O        12.3202660541        9.6738503267        6.7806551133
  O        28.8505407098       11.3057703670        5.1254303328
  O        23.7569576211        8.0235538608        8.4130675138
  O        12.3912708864        4.7840033719        2.0870822586
  O         7.3314612818        1.5303877256        5.3682468592
  O        23.8652307233        3.1598076939        3.7211986149
  O        22.5695219095       22.9245751158        7.0014036994
  O         9.9592912667        9.1571036267        2.6591641827
  O         4.8941198862        5.8933912621        5.9219652311
  O        21.4083380267        7.5343732054        4.2889783449
  O        16.3253942252        4.2561766700        7.5665890399
  O        14.4055803074        8.8441425080        1.9972688089
  O         9.3211573286        5.5657544995        5.2767632776
  O        25.8503066885        7.1982061769        3.6130344448
  O        20.7566321232        3.9303051066        6.9031570675
  O         0.9856511640        3.8304589038        5.0439173889
  O        17.5019221318        5.4568517712        3.4039944006
  O        12.3992525048        2.1938691775        6.6929445747
  O        23.8569419624        0.5566735779        8.3141156168
  O         5.3322513836       10.9713936667        4.4694519597
  O        28.2054448778        7.6906873924        7.7397671809
  O        19.9502661921        1.1056280589        2.8312054851
  O        16.7534891020        9.3397401444        6.1216650129
  O        14.5044193651       11.4072662601        2.0765075374
  O         9.4202001073        8.1190311076        5.3579630573
  O        25.9486960271        9.7530858914        3.6915641350
  O        20.8686284880        6.4750575514        6.9881755552
  O        16.2279866641        9.9499602419        3.2980956787
  O        11.1508765955        6.6617814268        6.5868253137
  O        27.6671839508        8.3074092082        4.9198667187
  O        22.5937841862        5.0376788579        8.2125185132
  P        15.3306802775       10.0672813893        2.0012249672
  P        10.2663697159        6.8101095839        5.3193503553
  P        26.7674952502        8.4452310082        3.6784389180
  P        21.6839807522        5.1849490922        6.9865972566
 Ca        10.4895487147        4.4762366088        3.3269330269
 Ca         5.4021676638        1.1847477255        6.6165720364
 Ca        26.9850998292        6.0966582257        1.7144518350
 Ca        21.9250881309        2.8098467205        4.9960111385
  O         1.2229646606        3.5296346462        2.5098045028
  O        17.7557358706        5.1677451281        0.8789667555
  O        12.6476103182        1.9044623233        4.1580386721
  O        24.1053222416        0.2614345257        5.7872960515
  O        28.4098838464        5.7527375205        3.5253037107
  O        16.9766434272        7.3876346440        1.8977828255
  O        11.8814109576        4.1226183072        5.1883304207
  O        23.3345748805        2.4845487780        6.8122475178
  P         1.3658614116        4.5086558153        3.7018354116
  P        17.8767068336        6.1467492081        2.0387042389
  P        12.8331990130        2.8744137713        5.3530337364
  P        24.2256091333        1.2386614528        7.0236175286
 Ca         8.1437947537        7.7887728303        2.9996054067
 Ca         3.0448642083        4.5300789964        6.2965262789
 Ca        24.6064089326        9.4324965251        1.3874869927
 Ca        19.5547889161        6.1700921784        4.6608843027
  O         7.7533767458       10.4886736882        5.1355804601
  O         2.6762969270        7.2099912457        8.3980820739
  O        22.3794659802        0.6148373235        3.4827566344
  O        19.1848327284        8.8597353705        6.7621005298
  O         6.7913323066        9.7078863661        2.8869588242
  O         1.7217967845        6.4272736644        6.1472478987
  O        25.2390306899       22.8413708695        1.2391550609
  O        18.2314097403        8.0805462409        4.5247867539
  P         6.7953136423       10.8214459673        3.9475388420
  P         1.7103443862        7.5630915155        7.3156668839
  P        21.3908192772        0.9553017128        2.3017525258
  P        18.2490123524        9.1873512406        5.6331556102
 Ca         2.9812696686        1.6639906791        3.3690411271
 Ca        19.4816384095        3.2938608968        1.7088365298
 Ca        14.4260270578        0.0190480247        4.9899766916
 Ca        27.7434231909        9.9006480502        6.6839540151
  O        17.2396907841        0.0698541150        2.2233652426
  O        14.0590386715        8.3011773321        5.5138176186
  O         2.6406351763        9.9347889964        3.8521656693
  O        25.5034604942        6.6468579111        7.1360542995
  O        15.5136653439        1.5068350429        0.9952518363
  O        12.3397026282        9.7467239533        4.2800043027
  O        28.8573825767       11.3911822420        2.6232430904
  O        23.7811100005        8.1049747877        5.9144202059
  P        16.4241398883        1.3576862437        2.2218319310
  P        13.2428479274        9.6131614606        5.5382805233
  P        29.7416228612       11.2434706958        3.8898540224
  P        24.6796201070        7.9876340583        7.2063110674
 Ca         4.7523076296        5.3573236179        2.5925732874
 Ca        16.1829730575        3.7328389843        4.2126491902
 Ca        11.1296849407        0.4345477139        7.5076471069
 Ca        27.6107066048        2.0743215099        5.8739654522
  O        14.0009352449        6.2812960765        3.4208563757
  O         8.9360226519        3.0130502847        6.6969205200
  O        25.4614558530        4.6394320464        5.0546529513
  O        20.3510553256        1.3760666313        8.3310491086
  O        14.7705807105        4.0588423355        2.4021949575
  O         9.6954732849        0.7936434965        5.6829497404
  O        26.2279302753        2.4190998971        4.0199490393
  O        24.9336096674       22.1770599399        7.3120662393
  P        13.8887156343        5.3056093211        2.1811334409
  P         8.7942157352        2.0313181009        5.5078426156
  P        25.2695446641        3.6700977826        3.8555023171
  P        20.2313174589        0.3969758173        7.1713107311
 Ca         7.1113442471        2.0102527619        2.9136090791
 Ca         3.9203746332       10.2579461435        6.2073283941
 Ca        18.5531642109        0.3744329116        4.5475652127
 Ca        15.3911313448        8.6337005679        7.8311965909
  O         9.3853305393       10.8418732014        0.8097343642
  O         4.3069803655        7.5648781786        4.0754695317
  O        20.8237659462        9.1985852531        2.4468954081
  O        15.7280336334        5.9271431144        5.7225965426
  O        10.3380947878       11.6252606475        3.0608609628
  O         5.2702231275        8.3465092979        6.3228711388
  O        21.7775627102        9.9749751316        4.6809363217
  O        16.6765861918        6.7172976990        7.9669655154
  P        10.3485315491       10.4979627170        1.8942957292
  P         5.2630424548        7.2334755525        5.2627416214
  P        21.7578000682        8.8628731264        3.5755276265
  P        16.7160460704        5.5946709511        6.9101262599
 Ca        12.2715598783        8.1592524549        2.5384230853
 Ca         7.1754299655        4.8777944783        5.8415763604
 Ca        23.6734268210        6.5149651315        4.2007143272
 Ca        18.6272295126        3.2490268800        7.4984531703
 Ca        13.3684700567        2.1554311809        1.8633846876
 Ca        10.1647957882       10.3927981493        5.1403776888
 Ca        24.7490563430        0.5249499781        3.5371549623
 Ca        21.5800673349        8.7563244385        6.8082764269
 Ca         4.4441733383        9.2905116739        2.4245768885
 Ca        15.8784811540        7.6490657112        4.0460054505
 Ca        10.7848337689        4.3762920274        7.3252686197
 Ca        27.2992795569        6.0397585538        5.7165720344
 Ca         1.8972058609        7.6610980316        4.0714455705
 Ca        18.4296707855        9.2982720890        2.3997732551
 Ca        13.3582296225        6.0216123505        5.6728588553
 Ca        24.7403456868        4.3878504900        7.3456235615
 Ca        10.8089240328        0.5026819690        3.4952317679
 Ca         7.6160230845        8.7650613254        6.7848803351
 Ca        27.3218045034        2.1681709659        1.8835577466
 Ca        24.1300059984       10.4057479758        5.1638852820
  O         4.2229326146        2.8263070601        5.0535307818
  O        30.7202218668       22.3584266980        8.5511210864
  O        20.7132349907        4.4614132879        3.4080124213
  O        15.6024939822        1.1712902452        6.7091859506
  H         4.9030021495        3.1209474544        4.7582896869
  H        31.4011159700       22.7998403425        8.1269012031
  H        21.4540593974        4.7747522629        3.0940201440
  H        16.3355059179        1.4773160475        6.4283579008
  O         6.7603870901        4.4752980074        3.3922893726
  O         1.6589152764        1.1802235738        6.7075316641
  O        18.1860119519        2.8216129162        5.0581612932
  O        16.7395589977       22.3591579232        8.5561743601
  H         7.4796265762        4.7773057977        3.0867031007
  H         2.3629396301        1.4824871191        6.4110949428
  H        18.8747596915        3.1177528198        4.7583482833
  H        17.4266826060       22.7948650168        8.1272624433
  O         5.9339178793        3.7102178768        4.1623573663
  O         0.8793014419        0.4368667107        7.4375549096
  O        22.6296806675        5.5754214369        2.2993796031
  O        17.3833616526        2.0813511373        5.8003590159
  H         5.2515584911        3.4205390076        4.4535382529
  H         0.1385307925        0.1343889477        7.7736473478
  H        21.9459564714        5.1351405810        2.7245369001
  H        16.6905721535        1.7910314816        6.0899739410
  O         8.6558339122        5.5777667624        2.2960947210
  O         3.3943621858        2.0797475495        5.8011488888
  O        19.9395751884        3.7270595747        4.1440828028
  O        14.8823976296        0.4543610534        7.4256396300
  H         7.9696837852        5.1352092536        2.7258386471
  H         2.7170061818        1.7877227903        6.1011558091
  H        19.2300431694        3.4295549734        4.4492103044
  H        14.1321637343        0.1527941757        7.7573150239
  O        18.1536237499       21.5403677375        0.7974946055
  O        13.0629853062       18.2621103430        4.0838110310
  O        29.5866240962       19.8930403399        2.4187139075
  O        24.5079892443       16.6214060125        5.7094036507
  O         4.7276081945       16.5255124244        3.8442716344
  O        21.2410913469       18.1543610761        2.2055896164
  O        16.1443333647       14.8891828864        5.4865025604
  O        27.6146266282       13.2762331541        7.1229073744
  O         5.2646208562        0.6512934506        3.2891514200
  O         4.0075379996       20.4035321262        6.5467812776
  O        23.6817395110       13.7939875463        1.6415145878
  O        20.4995120976       22.0350164442        4.9199251007
  O        19.2531725464       14.1233284120        2.3081924393
  O        16.0605697536       22.3677028298        5.5849406969
  O         0.8362256307        0.9762291774        3.9355263507
  O        27.5014589463       20.7207056188        7.2162837590
  O        16.1490439868       17.5015611955        0.8937515382
  O        11.0729826303       14.2268177056        4.1642731275
  O        27.6161596022       15.8621229494        2.5139413333
  O        22.5073845650       12.5969564827        5.8040231991
  O        13.7058220265       21.8679579548        1.4652055009
  O         8.6305176342       18.5937915602        4.7392550040
  O        25.1630276789       20.2321220634        3.0832091301
  O        20.0587583527       16.9481879463        6.3739376430
  O        17.4006954702       12.9452147540        3.4993906565
  O        14.2214687832       21.1850228029        6.7804780345
  O        30.7516567146       22.8168348155        5.1252512297
  O        25.6589114203       19.5345900414        8.4131551047
  O        14.2922560661       16.2958731318        2.0870633461
  O         9.2333444110       13.0414597652        5.3683056088
  O        25.7670671719       14.6717991764        3.7211985728
  O        20.6682075514       11.4123815968        7.0014024581
  O        11.8611006624       20.6687994769        2.6592989873
  O         6.7961690691       17.4045786057        5.9218594292
  O        23.3103468328       19.0463196117        4.2890510044
  O        18.2274724350       15.7673658042        7.5664810803
  O        16.3076015802       20.3553423029        1.9973318205
  O        11.2231408533       17.0776567759        5.2766153679
  O        27.7525051597       18.7094018916        3.6130316946
  O        22.6577305506       15.4420403856        6.9031576166
  O         2.8875815744       15.3423112747        5.0439989739
  O        19.4038260920       16.9688243790        3.4040387009
  O        14.3003688730       13.7050035707        6.6926804718
  O        25.7588655640       12.0677517438        8.3141117108
  O         7.2342679302       22.4833154824        4.4695753980
  O        30.1068550412       19.2025841930        7.7396378249
  O        21.8520556831       12.6175351825        2.8312837206
  O        18.6554666875       20.8516692789        6.1216567514
  O        16.4064692492       22.9192202038        2.0765482363
  O        11.3220843877       19.6303484873        5.3579175699
  O        27.8505703662       21.2644099867        3.6916314806
  O        22.7698748895       17.9866599814        6.9881626175
  O        18.1299262779       21.4610038443        3.2980107223
  O        13.0529770342       18.1727483080        6.5867786222
  O        29.5692092833       19.8185423086        4.9198656052
  O        24.4948366777       16.5495059443        8.2125115955
  P        17.2323652669       21.5789330419        2.0013162526
  P        12.1684086546       18.3218487714        5.3194090804
  P        28.6695040799       19.9567715622        3.6783843770
  P        23.5851721910       16.6966265878        6.9864967398
 Ca        12.3914646077       15.9873120411        3.3269889054
 Ca         7.3041861625       12.6967041753        6.6166157561
 Ca        28.8870919212       17.6077773630        1.7144592100
 Ca        23.8269871168       14.3216927417        4.9959262978
  O         3.1239082144       15.0415878750        2.5097556653
  O        19.6568130841       16.6789209123        0.8790938633
  O        14.5495392940       13.4164147979        4.1580111110
  O        26.0072990865       11.7732582207        5.7871063932
  O        30.3118191757       17.2647664380        3.5253156791
  O        18.8786497991       18.8998487291        1.8978417323
  O        13.7826711117       15.6344429612        5.1883800123
  O        25.2363700660       13.9956069864        6.8123066029
  P         3.2673037162       16.0206487855        3.7018367755
  P        19.7779896210       17.6588250829        2.0386685985
  P        14.7348702965       14.3862637414        5.3532018091
  P        26.1275042212       12.7498472253        7.0236955706
 Ca        10.0448505492       19.3007190208        2.9996238263
 Ca         4.9467889994       16.0411135189        6.2965160055
 Ca        26.5074410058       20.9444155468        1.3874808877
 Ca        21.4567384377       17.6811621349        4.6608370137
  O         9.6554482014       22.0006200646        5.1355281600
  O         4.5774453163       18.7208642541        8.3982624564
  O        24.2813218838       12.1258570133        3.4826433261
  O        21.0867627437       20.3708183765        6.7620920374
  O         8.6925304613       21.2196974574        2.8868576513
  O         3.6238182820       17.9382652048        6.1472911189
  O        23.3376003985       11.3299919587        1.2389789561
  O        20.1334243281       19.5923337143        4.5246079220
  P         8.6971364066       22.3329621790        3.9475475133
  P         3.6119097410       19.0742586814        7.3155490549
  P        23.2923614129       12.4668031656        2.3017991794
  P        20.1511756134       20.6987525964        5.6333151255
 Ca         4.8832344635       13.1760289880        3.3691149106
 Ca        21.3836448015       14.8048747406        1.7088009069
 Ca        16.3279211660       11.5310894928        4.9899235737
 Ca        29.6454761632       21.4127157482        6.6839624396
  O        19.1417549994       11.5814816144        2.2233575105
  O        15.9610766789       19.8130537409        5.5138109203
  O         4.5426487382       21.4467330261        3.8522259787
  O        27.4054648265       18.1586792039        7.1360391757
  O        17.4148122947       13.0187621605        0.9954314212
  O        14.2416864047       21.2586509290        4.2799474714
  O        30.7593763489       22.9022038358        2.6232651700
  O        25.6823699146       19.6169145227        5.9146385901
  P        18.3258744867       12.8689418533        2.2216815214
  P        15.1445812062       21.1248538120        5.5383993948
  P        31.6433793009       22.7551615493        3.8899219981
  P        26.5815412229       19.4991026138        7.2060826262
 Ca         6.6532907773       16.8692853008        2.5925499592
 Ca        18.0850144222       15.2447970965        4.2126772620
 Ca        13.0316331760       11.9456296541        7.5076016416
 Ca        29.5126172152       13.5863415280        5.8739827550
  O        15.9028471870       17.7922422517        3.4207658527
  O        10.8379259701       14.5249299631        6.6967372356
  O        27.3634615602       16.1505420727        5.0547143544
  O        22.2521908591       12.8879779487        8.3310618129
  O        16.6722242031       15.5700120275        2.4020987350
  O        11.5968341435       12.3051901441        5.6830436909
  O        28.1291038568       13.9299414102        4.0199708544
  O        23.0322404177       10.6660672972        7.3121436620
  P        15.7901485837       16.8167098187        2.1810925259
  P        10.6960243157       13.5428076495        5.5079373971
  P        27.1714446934       15.1812947049        3.8555228916
  P        22.1330071853       11.9090445544        7.1711998396
 Ca         9.0124293693       13.5222681516        2.9135828334
 Ca         5.8224073867       21.7698957478        6.2073521135
 Ca        20.4551326715       11.8856536015        4.5475845556
 Ca        17.2921367251       20.1447617783        7.8312129880
  O        11.2864288300       22.3538580091        0.8098226408
  O         6.2089927766       19.0768363996        4.0755251331
  O        22.7258180421       20.7105423193        2.4468642929
  O        17.6299432633       17.4382451656        5.7225212855
  O         8.4366606069        0.1140038349        3.0607700340
  O         7.1721124343       19.8576674285        6.3229702152
  O        23.6795283644       21.4869943152        4.6809178350
  O        18.5775430664       18.2284951524        7.9670928981
  P        12.2496919598       22.0095131959        1.8942313968
  P         7.1650379102       18.7450556281        5.2627255049
  P        23.6596915943       20.3748371422        3.5754627774
  P        18.6180179433       17.1061727263        6.9101659840
 Ca        14.1726292272       19.6703328284        2.5384302652
 Ca         9.0774879282       16.3898770779        5.8416827465
 Ca        25.5753904540       18.0260732588        4.2006434945
 Ca        20.5290662084       14.7610341868        7.4984669696
 Ca        15.2695875660       13.6674080961        1.8633777182
 Ca        12.0667824294       21.9047189920        5.1404428812
 Ca        26.6509760693       12.0360065827        3.5371362438
 Ca        23.4820467193       20.2674097910        6.8081689976
 Ca         6.3451378911       20.8016269059        2.4244888436
 Ca        17.7805233920       19.1600504393        4.0459728580
 Ca        12.6867559295       15.8883636137        7.3253311058
 Ca        29.2012571493       17.5517700061        5.7165815816
 Ca         3.7991864099       19.1731304283        4.0714392508
 Ca        20.3316407140       20.8100692654        2.3997946940
 Ca        15.2601946280       17.5326993081        5.6728808456
 Ca        26.6414713984       15.8988756834        7.3456025411
 Ca        12.7109178822       12.0146680816        3.4952885145
 Ca         9.5171100083       20.2769425157        6.7850454940
 Ca        29.2237246415       13.6801729275        1.8836572425
 Ca        26.0310589476       21.9176626554        5.1638453615
  O         6.1236056025       14.3392322621        5.0536932526
  O        28.8190006722       10.8464032081        8.5510791801
  O        22.6140027903       15.9740690572        3.4078751881
  O        17.5046110805       12.6822439533        6.7089256104
  H         6.8048325007       14.6312241036        4.7575054220
  H        29.4992807738       11.2887848734        8.1271152472
  H        23.3554361933       16.2863841603        3.0939834260
  H        18.2375889793       12.9880795379        6.4283660001
  O         8.6618244666       15.9873947046        3.3926532320
  O         3.5611743984       12.6907545895        6.7075818070
  O        20.0871534236       14.3338021782        5.0589844801
  O        14.8373612863       10.8472250183        8.5561468297
  H         9.3815649787       16.2887791578        3.0867804701
  H         4.2649891360       12.9934867719        6.4113279764
  H        20.7771791183       14.6276200425        4.7583562937
  H        15.5241093992       11.2839199297        8.1272953403
  O         7.8360672716       15.2210505564        4.1621160996
  O         2.7800777700       11.9502566207        7.4371832026
  O        24.5318688089       17.0864196672        2.2993329462
  O        19.2851048110       13.5928579729        5.7991489209
  H         7.1536376763       14.9317459666        4.4537283529
  H         2.0411027762       11.6440421430        7.7738096342
  H        23.8476864884       16.6469739036        2.7247352909
  H        18.5931041676       13.3020984547        6.0909336428
  O        10.5571999788       17.0889925084        2.2958192467
  O         5.2964783181       13.5899814267        5.8013332030
  O        21.8417319983       15.2371941501        4.1444178464
  O        16.7837519037       11.9671511756        7.4261066089
  H         9.8713600393       16.6470050645        2.7260973618
  H         4.6179141552       13.2997486218        6.1006536724
  H        21.1308106442       14.9418675355        4.4487387182
  H        16.0346931253       11.6625308629        7.7571195330
  O        16.2208371753       10.0395303071       15.5293466850
  C        15.5413506729       11.2100046591       15.5614392590
  O        14.8613049392       12.3827270134       15.5930358878
     387
 i =        5, E =     -6914.5870940172
  O        16.2582708044       10.0325169298        0.7943806388
  O        11.1587436426        6.7490704957        4.0825152028
  O        27.6865466466        8.3761974905        2.4077362313
  O        22.6066999046        5.1066060846        5.7067890991
  O         2.8325480571        5.0155081139        3.8420026362
  O        19.3386555722        6.6427392377        2.2051875793
  O        14.2420997497        3.3836177090        5.4838299651
  O        25.7227330036        1.7757754917        7.1151168261
  O         7.1634963939       12.1726136946        3.2911234658
  O         2.1108346410        8.8939277384        6.5332933003
  O        21.7775737092        2.2872324732        1.6402380206
  O        18.5935792483       10.5257351112        4.9155285105
  O        17.3560575637        2.6123010835        2.3125066880
  O        14.1551124602       10.8621798897        5.5848581807
  O         2.7462367458       12.4900204735        3.9311695917
  O        25.6035292260        9.2104035207        7.2096507421
  O        14.2461401678        5.9976867180        0.8889644513
  O         9.1670649265        2.7172434583        4.1591783968
  O        25.7292855097        4.3519443441        2.5032387802
  O        20.6050267735        1.0876198321        5.8006846682
  O        11.8092677059       10.3550657864        1.4704864085
  O         6.7307172549        7.0813206139        4.7420433044
  O        23.2692622503        8.7208454020        3.0761876465
  O        18.1581829833        5.4311721961        6.3695570932
  O        15.4976281541        1.4380285920        3.5018532056
  O        12.3142491943        9.6780368916        6.7852509875
  O        28.8531416626       11.3071159722        5.1267673461
  O        23.7515485220        8.0190332589        8.4168888998
  O        12.3802658958        4.7767792134        2.0931188460
  O         7.3236132809        1.5293159154        5.3734532717
  O        23.8647456446        3.1533008345        3.7205805664
  O        22.5712576064       22.9258925034        7.0013984237
  O         9.9569826440        9.1525720604        2.6656540813
  O         4.8969586544        5.8827067883        5.9218276535
  O        21.4132385263        7.5321613661        4.2919450212
  O        16.3279417251        4.2498372346        7.5654649107
  O        14.3994153185        8.8419967782        2.0061391435
  O         9.3134529621        5.5637342422        5.2832240740
  O        25.8526223016        7.1926906088        3.6058534797
  O        20.7522071421        3.9304101932        6.9014048527
  O         0.9876291058        3.8292584122        5.0521642752
  O        17.5042114441        5.4533693615        3.4052364814
  O        12.3852402762        2.1951070079        6.6995394117
  O        23.8562606290        0.5508799765        8.3169601884
  O         5.3285966839       10.9732566323        4.4691637769
  O        28.1994023045        7.6870364195        7.7298118729
  O        19.9488674784        1.1107311441        2.8322876045
  O        16.7498577533        9.3392157502        6.1213197274
  O        14.5019735548       11.4183607164        2.0838037985
  O         9.4143366430        8.1223771105        5.3636233124
  O        25.9505377296        9.7552543480        3.6839515606
  O        20.8676146373        6.4786438423        6.9865220231
  O        16.2259419918        9.9506204860        3.2998795305
  O        11.1524432217        6.6529966826        6.5972993180
  O        27.6727060670        8.3058192127        4.9184233288
  O        22.6018119300        5.0375840596        8.2156005620
  P        15.3307084964       10.0676334598        1.9979008028
  P        10.2710960282        6.8112324433        5.3234227825
  P        26.7676982981        8.4463128110        3.6767588763
  P        21.6846710311        5.1832600172        6.9889447352
 Ca        10.4984808986        4.4868182864        3.3238540197
 Ca         5.4075792998        1.1822701979        6.6146959647
 Ca        26.9800436776        6.0984053457        1.7336821715
 Ca        21.9290580545        2.8051746249        5.0038087092
  O         1.2210631737        3.5242210222        2.5051321838
  O        17.7645400668        5.1596130301        0.8768051277
  O        12.6398810151        1.9053673840        4.1551233285
  O        24.1112748033        0.2603725720        5.7816790887
  O        28.4101078887        5.7546176495        3.5203594741
  O        16.9754514031        7.3920910286        1.9011483170
  O        11.8723873158        4.1286350505        5.1963069224
  O        23.3369955532        2.4886906845        6.8080166043
  P         1.3622630724        4.5075621874        3.7005210505
  P        17.8765787213        6.1471726635        2.0400411048
  P        12.8388807760        2.8725121273        5.3576097869
  P        24.2261104461        1.2406841710        7.0288524597
 Ca         8.1553648233        7.7929052312        2.9963236835
 Ca         3.0417278685        4.5466906676        6.2970702251
 Ca        24.5834439454        9.4440146224        1.4050165875
 Ca        19.5529527466        6.1794910895        4.6644051302
  O         7.7532830062       10.4877530523        5.1398317026
  O         2.6855213210        7.2004787281        8.3974861088
  O        22.3869761543        0.6137555589        3.4816659961
  O        19.1924627525        8.8581797623        6.7667681876
  O         6.7859119872        9.6984850847        2.8850886300
  O         1.7232899036        6.4185163760        6.1365535819
  O        25.2531245529       22.8256120237        1.2357964390
  O        18.2306574644        8.0794898864        4.5212618802
  P         6.7982651055       10.8169468853        3.9425571609
  P         1.7101598069        7.5674690765        7.3280190447
  P        21.3875778199        0.9581475648        2.2944065779
  P        18.2450757776        9.1917757240        5.6362039417
 Ca         2.9790116243        1.6616130969        3.3718247815
 Ca        19.4775472445        3.2905385742        1.7058751365
 Ca        14.4332472284        0.0133619236        4.9845629911
 Ca        27.7382404781        9.8987588826        6.7022439876
  O        17.2412599680        0.0665135797        2.2272323002
  O        14.0556788569        8.2985728470        5.5206852112
  O         2.6469672756        9.9308028123        3.8483434150
  O        25.5049204614        6.6358004565        7.1307255700
  O        15.5049930742        1.5077515827        0.9906296736
  O        12.3338077986        9.7478450513        4.2768122736
  O        28.8546617703       11.3984381169        2.6133623457
  O        23.7826110368        8.1033358033        5.9105332503
  P        16.4228629035        1.3594974014        2.2204461815
  P        13.2435019818        9.6145092553        5.5415825730
  P        29.7364247940       11.2418015338        3.8867520202
  P        24.6801862664        7.9871119167        7.2117143034
 Ca         4.7491870180        5.3601903036        2.5949516406
 Ca        16.1795878305        3.7375751561        4.2055063433
 Ca        11.1422355614        0.4236988377        7.4999440920
 Ca        27.5954050078        2.0660513834        5.8730751992
  O        13.9947382317        6.2820909167        3.4266333876
  O         8.9373897901        3.0200663564        6.7009686371
  O        25.4691501972        4.6380273209        5.0573285598
  O        20.3424247172        1.3837387453        8.3335057909
  O        14.7668739901        4.0542331674        2.4088333965
  O         9.6935398904        0.7925676373        5.6882254791
  O        26.2358969496        2.4148427366        4.0120170399
  O        24.9349323184       22.1713588940        7.3102053839
  P        13.8905103280        5.3036773388        2.1754685293
  P         8.7992827139        2.0319241346        5.5072758769
  P        25.2653270306        3.6715353461        3.8543962935
  P        20.2299780982        0.3966963224        7.1698781319
 Ca         7.1150489885        1.9965284653        2.9137972722
 Ca         3.9073457676       10.2470820431        6.2115513769
 Ca        18.5550273289        0.3664560758        4.5440602648
 Ca        15.4059363682        8.6332766424        7.8210717744
  O         9.3759092059       10.8500937371        0.8069366045
  O         4.3067307447        7.5656564665        4.0718013819
  O        20.8184380743        9.2007968729        2.4421949930
  O        15.7217747881        5.9266795273        5.7213672154
  O        10.3363616888       11.6308465567        3.0677053066
  O         5.2757829085        8.3551933356        6.3261678293
  O        21.7798504167        9.9751138882        4.6806498813
  O        16.6656708380        6.7285655458        7.9691370699
  P        10.3496528605       10.4947491998        1.8862024944
  P         5.2623634417        7.2373650404        5.2677504264
  P        21.7553495813        8.8615083640        3.5722178644
  P        16.7180229170        5.5935691600        6.9184827033
 Ca        12.2810567536        8.1641808978        2.5299357656
 Ca         7.1777435336        4.8801272157        5.8370587397
 Ca        23.6624584402        6.5160749241        4.2011419812
 Ca        18.6324567469        3.2532602777        7.5000325989
 Ca        13.3918754620        2.1547988436        1.8628094890
 Ca        10.1740220300       10.3899271212        5.1293801540
 Ca        24.7388509373        0.5276804896        3.5529981863
 Ca        21.5760069791        8.7538472477        6.8124055511
 Ca         4.4490984760        9.2933794002        2.4295997666
 Ca        15.8844468219        7.6484439785        4.0396765050
 Ca        10.7843686642        4.3738919242        7.3065258012
 Ca        27.2952176809        6.0556420293        5.7246504934
 Ca         1.8905135318        7.6641100761        4.0847416340
 Ca        18.4333455269        9.3008708736        2.3962809004
 Ca        13.3694550684        6.0197897868        5.6579243782
 Ca        24.7173215922        4.3885197517        7.3473493164
 Ca        10.8146483648        0.4871933593        3.4904628629
 Ca         7.6101003816        8.7628384336        6.7796242002
 Ca        27.3237823354        2.1694880854        1.9005051105
 Ca        24.1237317650       10.4069971782        5.1721486203
  O         4.1363717887        2.8301561544        5.0503833603
  O        30.6904271137       22.3387796847        8.5608669177
  O        20.6221128179        4.4740252245        3.3929540595
  O        15.4644567709        1.1708692641        6.7007624595
  H         4.9452035464        3.0788201964        4.8018506433
  H        31.3567269162       22.7711648756        8.1650613652
  H        21.5376783577        4.7800071580        3.0897077367
  H        16.3533865278        1.4143131733        6.5105136305
  O         6.7110614796        4.5047183523        3.3550700496
  O         1.5259165201        1.1655754459        6.7228708007
  O        18.0793919276        2.8219934104        5.0592745125
  O        16.7059332591       22.3417428261        8.5687013668
  H         7.5739634804        4.7935540459        3.0718546663
  H         2.3879846840        1.4276136208        6.4753110793
  H        18.9057315866        3.0661419740        4.8074159107
  H        17.3895978142       22.7655909891        8.1602425394
  O         6.0432604854        3.7149315578        4.1581756511
  O         0.9717936474        0.4174006175        7.4370842738
  O        22.6637593569        5.5970308994        2.2868973604
  O        17.4896371745        2.0726186305        5.8099680711
  H         5.2036607123        3.4614117621        4.4115033727
  H         0.0554020882        0.1324300584        7.7889754098
  H        21.9884354259        5.1675260845        2.6860982012
  H        16.6482777835        1.8356578708        6.0386310860
  O         8.6879562126        5.6007335293        2.2799511899
  O         3.4683862155        2.0671864195        5.8146120182
  O        20.0672583693        3.7359092299        4.1332890951
  O        14.9741391241        0.4303311138        7.4382862080
  H         8.0150002397        5.1702727551        2.6879515569
  H         2.6792443394        1.8311116706        6.0579545109
  H        19.2054380506        3.4898849531        4.3924817381
  H        14.0701512671        0.1673932768        7.7590607468
  O        18.1594681824       21.5433686444        0.7941828547
  O        13.0607870286       18.2611025442        4.0825216672
  O        29.5885451523       19.8880824090        2.4077449019
  O        24.5084641568       16.6183842668        5.7069214171
  O         4.7343247966       16.5264394056        3.8419338147
  O        21.2402822535       18.1544309769        2.2049158153
  O        16.1440180592       14.8947547913        5.4838952012
  O        27.6240991686       13.2877304697        7.1152047751
  O         5.2610705671        0.6613409434        3.2910888986
  O         4.0128146126       20.4049610434        6.5333028131
  O        23.6794032040       13.7989177031        1.6404461462
  O        20.4955003453       22.0375265380        4.9156287884
  O        19.2579982076       14.1233877956        2.3125109749
  O        16.0571741092       22.3734580796        5.5849755820
  O         0.8448106602        0.9781588288        3.9313294472
  O        27.5052963110       20.7220861526        7.2096799337
  O        16.1480533552       17.5094009088        0.8892198331
  O        11.0690949432       14.2284113705        4.1591007452
  O        27.6313325073       15.8628325314        2.5031666023
  O        22.5062626647       12.5998176202        5.8005906735
  O        13.7105009176       21.8670824628        1.4704045691
  O         8.6327044770       18.5922697313        4.7420082718
  O        25.1711191706       20.2320841794        3.0762136537
  O        20.0601668736       16.9431090521        6.3696218551
  O        17.3996274907       12.9491430469        3.5019125492
  O        14.2155124322       21.1892852653        6.7850395153
  O        30.7542668911       22.8182190777        5.1265722120
  O        25.6535223121       19.5300344182        8.4169249311
  O        14.2812979653       16.2886569086        2.0930545795
  O         9.2254729947       13.0404602663        5.3735165652
  O        25.7664878839       14.6653015281        3.7205716844
  O        20.6698324691       11.4137044012        7.0014346649
  O        11.8587517086       20.6642956722        2.6657618712
  O         6.7990647150       17.3939375463        5.9216879347
  O        23.3152389150       19.0441379822        4.2919739728
  O        18.2300409220       15.7610329516        7.5653599536
  O        16.3013975260       20.3532201131        2.0062279052
  O        11.2154027704       17.0755743948        5.2830297178
  O        27.7548342014       18.7039241204        3.6058550581
  O        22.6534575392       15.4421816951        6.9013515996
  O         2.8895463634       15.3410630092        5.0522462648
  O        19.4060606035       16.9653310064        3.4053244262
  O        14.2864441181       13.7062261041        6.6992496976
  O        25.7582439666       12.0620325247        8.3169279625
  O         7.2305946819       22.4851671062        4.4693938366
  O        30.1008953917       19.1988898061        7.7296596287
  O        21.8506171621       12.6225825729        2.8323744167
  O        18.6518645785       20.8510579565        6.1212711237
  O        16.4040778968       22.9302521908        2.0838513599
  O        11.3161785142       19.6337839750        5.3635990391
  O        27.8523901014       21.2666370591        3.6840271306
  O        22.7688993793       17.9903134963        6.9864439987
  O        18.1278686417       21.4616417779        3.2997768537
  O        13.0545873397       18.1639564089        6.5972560084
  O        29.5747209090       19.8170348098        4.9184185786
  O        24.5028743467       16.5493598597        8.2155941862
  P        17.2323462501       21.5792148500        1.9979946221
  P        12.1731597859       18.3229481280        5.3234406941
  P        28.6697355711       19.9578338568        3.6767107595
  P        23.5858622810       16.6948693942        6.9889427248
 Ca        12.4003283694       15.9979320192        3.3239540512
 Ca         7.3096141562       12.6942094300        6.6147678108
 Ca        28.8820502858       17.6095504797        1.7336831423
 Ca        23.8309784926       14.3169622859        5.0037475576
  O         3.1220088507       15.0361454100        2.5050873014
  O        19.6656077226       16.6709052635        0.8770791200
  O        14.5417915071       13.4173142615        4.1550841225
  O        26.0132367374       11.7721645473        5.7814987169
  O        30.3120269474       17.2666224253        3.5203850661
  O        18.8774233070       18.9043986748        1.9011372024
  O        13.7737749132       15.6404206896        5.1963692095
  O        25.2387402716       13.9998353126        6.8080727089
  P         3.2637960102       16.0194879718        3.7005275459
  P        19.7779498917       17.6590694254        2.0398582393
  P        14.7405249173       14.3842949987        5.3577527917
  P        26.1278306472       12.7518382941        7.0289199364
 Ca        10.0564292461       19.3048305881        2.9963235293
 Ca         4.9436577830       16.0578008617        6.2970697044
 Ca        26.4845396917       20.9558876644        1.4049925523
 Ca        21.4548433078       17.6906462435        4.6643763967
  O         9.6553952362       21.9996512367        5.1397680750
  O         4.5866699896       18.7113720101        8.3976661621
  O        24.2887874023       12.1247869394        3.4815650522
  O        21.0944288822       20.3693108868        6.7668069271
  O         8.6871980210       21.2102865910        2.8850201847
  O         3.6253062919       17.9294938419        6.1366108051
  O        23.3517214071       11.3142227099        1.2356092937
  O        20.1327509407       19.5912152313        4.5210899022
  P         8.7000222948       22.3285381659        3.9425148734
  P         3.6117456688       19.0786295494        7.3279555985
  P        23.2892363473       12.4696440521        2.2944088565
  P        20.1470835153       20.7032548228        5.6363254150
 Ca         4.8809319762       13.1736753276        3.3719443001
 Ca        21.3795698768       14.8015504991        1.7058260979
 Ca        16.3351044280       11.5253827825        4.9844497416
 Ca        29.6402464818       21.4107601198        6.7022311994
  O        19.1432535260       11.5780996240        2.2271791655
  O        15.9577180598       19.8103750314        5.5206748918
  O         4.5489335920       21.4427268422        3.8484479542
  O        27.4069467973       18.1475570853        7.1306643376
  O        17.4061439373       13.0196363841        0.9908340320
  O        14.2357519117       21.2597060587        4.2767275157
  O        30.7566348735       22.9094790557        2.6133443323
  O        25.6839257684       19.6152577949        5.9107219037
  P        18.3245735667       12.8707796946        2.2203305382
  P        15.1452676055       21.1261670315        5.5416876237
  P        31.6382324177       22.7533871662        3.8868293528
  P        26.5820836991       19.4986680335        7.2116181930
 Ca         6.6501812728       16.8721982234        2.5948640123
 Ca        18.0815760606       15.2495433626        4.2054814758
 Ca        13.0441108996       11.9348190437        7.4998581954
 Ca        29.4973386912       13.5780231591        5.8730688270
  O        15.8965939112       17.7930053156        3.4265658294
  O        10.8392765636       14.5319593927        6.7007673590
  O        27.3711307391       16.1492157528        5.0573924724
  O        22.2435314162       12.8956209496        8.3335177583
  O        16.6684373817       15.5654123538        2.4087249409
  O        11.5949934691       12.3040509982        5.6883645709
  O        28.1371291965       13.9256903501        4.0120770544
  O        23.0335442707       10.6604734928        7.3102733933
  P        15.7920350424       16.8148532796        2.1753783481
  P        10.7010449546       13.5434124317        5.5073535351
  P        27.1672337687       15.1827706149        3.8544398957
  P        22.1317077566       11.9087877981        7.1698134451
 Ca         9.0162163176       13.5085132811        2.9137457888
 Ca         5.8093777372       21.7590057345        6.2115565950
 Ca        20.4570418190       11.8775754286        4.5440270962
 Ca        17.3069604588       20.1444152855        7.8211129233
  O        11.2770358373       22.3620901459        0.8070536687
  O         6.2087946454       19.0775773039        4.0719702317
  O        22.7204197020       20.7126890063        2.4420697871
  O        17.6236645269       17.4378150173        5.7212847214
  O         8.4349022712        0.1196007227        3.0676456743
  O         7.1776785810       19.8663785658        6.3263324627
  O        23.6817627031       21.4870578870        4.6805182953
  O        18.5665417561       18.2398161754        7.9692606137
  P        12.2508672899       22.0063263356        1.8861382091
  P         7.1642769332       18.7488289801        5.2676624417
  P        23.6574508145       20.3733775115        3.5723397205
  P        18.6199494036       17.1050290410        6.9184979764
 Ca        14.1821722401       19.6753199855        2.5299542645
 Ca         9.0797483487       16.3921975851        5.8372204396
 Ca        25.5644494557       18.0271886990        4.2010691489
 Ca        20.5343096935       14.7652796713        7.5000440574
 Ca        15.2930199084       13.6667303550        1.8627998543
 Ca        12.0760002558       21.9018042076        5.1294603688
 Ca        26.6407391933       12.0387608826        3.5529609553
 Ca        23.4779710408       20.2649478698        6.8123644639
 Ca         6.3500569296       20.8045241653        2.4294095584
 Ca        17.7864854735       19.1594693056        4.0396733029
 Ca        12.6862657768       15.8859797092        7.3066302872
 Ca        29.1971830085       17.5676292205        5.7246718046
 Ca         3.7925037402       19.1761447627        4.0847125847
 Ca        20.3352178157       20.8126767739        2.3963192842
 Ca        15.2714253181       17.5309219140        5.6579502121
 Ca        26.6184486244       15.8995782298        7.3473254027
 Ca        12.7166120498       11.9991585123        3.4905430749
 Ca         9.5112156142       20.2747167562        6.7797865756
 Ca        29.2256770667       13.6814942644        1.9006043277
 Ca        26.0248557294       21.9189107770        5.1721390995
  O         6.0367597692       14.3443086749        5.0507931849
  O        28.7891807195       10.8266315694        8.5608340908
  O        22.5225051169       15.9872723573        3.3929025600
  O        17.3667762132       12.6817131462        6.7001523687
  H         6.8469608994       14.5880309155        4.8005299722
  H        29.4546244162       11.2604631811        8.1653742954
  H        23.4390065091       16.2915111722        3.0895775844
  H        18.2555476651       12.9250161565        6.5102042187
  O         8.6122175875       16.0170369697        3.3556474203
  O         3.4284404069       12.6756910112        6.7227517335
  O        19.9805798181       14.3353134745        5.0604636893
  O        14.8039263278       10.8298026460        8.5686868955
  H         9.4757014432       16.3046568447        3.0720243884
  H         4.2905145380       12.9384466732        6.4757951363
  H        20.8089130572       14.5746124622        4.8072132790
  H        15.4867916221       11.2549766983        8.1603039986
  O         7.9456187643       15.2254867572        4.1576569413
  O         2.8720080995       11.9321564604        7.4365992613
  O        24.5659309812       17.1080779252        2.2869121239
  O        19.3913149095       13.5839385904        5.8079964057
  H         7.1058625106       14.9730567540        4.4122354399
  H         1.9584072420       11.6409958839        7.7891763552
  H        23.8902967537       16.6790747740        2.6864094765
  H        18.5513448366       13.3468497568        6.0402572652
  O        10.5893731164       17.1119958602        2.2795899437
  O         5.3709622789       13.5766893529        5.8148023792
  O        21.9697466225       15.2450798153        4.1337641416
  O        16.8750199846       11.9440736695        7.4392897648
  H         9.9166720342       16.6821410791        2.6882459119
  H         4.5796985821       13.3439832099        6.0569923713
  H        21.1050775323       15.0032333941        4.3919653878
  H        15.9728582600       11.6760050633        7.7587516893
  O        16.1737661734       10.1205735961       15.5311962626
  C        15.5423000645       11.2093597971       15.5616666634
  O        14.9076040736       12.3023683929       15.5922042140
     387
 i =        6, E =     -6916.2853041863
  O        16.2719062602       10.0412456653        0.7880470880
  O        11.1527816533        6.7465304518        4.0795006228
  O        27.6911010083        8.3632264800        2.3798637575
  O        22.6086638148        5.0972141871        5.6953888549
  O         2.8479807097        5.0177635747        3.8359734171
  O        19.3398431435        6.6421319321        2.2051948770
  O        14.2430979441        3.3974396226        5.4779785782
  O        25.7498338369        1.8067803698        7.0938010022
  O         7.1529692069       12.1976166419        3.2971404531
  O         2.1245519329        8.8979254990        6.4979255272
  O        21.7703541127        2.3030077609        1.6375421737
  O        18.5818979581       10.5375992674        4.9043114106
  O        17.3716284343        2.6151688843        2.3280200581
  O        14.1483840076       10.8786876140        5.5857176235
  O         2.7676661603       12.4943497352        3.9201074266
  O        25.6136059926        9.2131083126        7.1914416336
  O        14.2424050979        6.0167305804        0.8808502830
  O         9.1571875226        2.7219511769        4.1444215801
  O        25.7679098845        4.3533657385        2.4762381925
  O        20.6003581130        1.0994264420        5.7853117575
  O        11.8213680986       10.3525993905        1.4848853680
  O         6.7380485024        7.0775465713        4.7488007294
  O        23.2919634986        8.7200511332        3.0575191370
  O        18.1623302261        5.4152868283        6.3572205540
  O        15.4935046128        1.4496007032        3.5161291419
  O        12.2995875296        9.6894427920        6.7979928992
  O        28.8604957466       11.3107183686        5.1311627644
  O        23.7384034005        8.0065562958        8.4257400416
  O        12.3497559291        4.7567250669        2.1092657995
  O         7.3061903987        1.5263967301        5.3874232916
  O        23.8638003318        3.1359924968        3.7188436221
  O        22.5690513921       22.9307054518        6.9985522411
  O         9.9507531738        9.1388985797        2.6836971698
  O         4.9058714513        5.8562339416        5.9203185600
  O        21.4261894158        7.5247937751        4.3002918995
  O        16.3351414319        4.2285900050        7.5622433722
  O        14.3832746117        8.8377235453        2.0299195197
  O         9.2940429737        5.5586149691        5.3004119103
  O        25.8579279231        7.1778655893        3.5871953136
  O        20.7370728953        3.9272380813        6.8934291859
  O         0.9933539197        3.8258947825        5.0732061614
  O        17.5102837665        5.4397493133        3.4156029182
  O        12.3510583459        2.1967834765        6.7187561840
  O        23.8555196025        0.5376649833        8.3212651502
  O         5.3191301551       10.9778009090        4.4677013952
  O        28.1842827347        7.6774412934        7.7042343523
  O        19.9435235931        1.1259539535        2.8365796856
  O        16.7352244870        9.3405233620        6.1226202136
  O        14.4952805356       11.4480627455        2.1034936915
  O         9.3997186872        8.1308541365        5.3790076145
  O        25.9551446109        9.7614509020        3.6636896154
  O        20.8663334247        6.4849240174        6.9810036065
  O        16.2216904748        9.9530328465        3.3079499476
  O        11.1569373505        6.6297441591        6.6238308388
  O        27.6865222893        8.3021364973        4.9136720821
  O        22.6228396537        5.0368372243        8.2207539635
  P        15.3307618998       10.0667360313        1.9844083480
  P        10.2830424596        6.8142066490        5.3349676380
  P        26.7702228534        8.4490407373        3.6722120629
  P        21.6859761230        5.1856795069        7.0026181452
 Ca        10.5226181995        4.5149077695        3.3154156291
 Ca         5.4239611002        1.1739926869        6.6114098209
 Ca        26.9672822741        6.1035430917        1.7845433400
 Ca        21.9477291041        2.7876150318        5.0308455279
  O         1.2156946818        3.5100039299        2.4931485118
  O        17.7889306556        5.1389965947        0.8745727604
  O        12.6203509251        1.9084107041        4.1496911755
  O        24.1267779835        0.2575241765        5.7656885895
  O        28.4103340613        5.7595369566        3.5076035151
  O        16.9732329944        7.4021359878        1.9116134627
  O        11.8512998312        4.1426370510        5.2187933350
  O        23.3436294485        2.4999134950        6.7952988357
  P         1.3549639175        4.5049406388        3.6971686224
  P        17.8744872595        6.1490818192        2.0332163238
  P        12.8499257733        2.8691463745        5.3655316804
  P        24.2246945888        1.2440316971        7.0476526913
 Ca         8.1856638211        7.8043737170        2.9877687718
 Ca         3.0331248008        4.5918183286        6.2995232857
 Ca        24.5229061982        9.4741997791        1.4516623569
 Ca        19.5465424183        6.2129124734        4.6763395140
  O         7.7535706775       10.4848588123        5.1513328939
  O         2.7079380677        7.1766512519        8.3939965367
  O        22.4051801607        0.6120445619        3.4780659743
  O        19.2069505086        8.8561189918        6.7738210284
  O         6.7719298691        9.6735346667        2.8806041224
  O         1.7270638333        6.3955667590        6.1081975802
  O        25.2907596263       22.7861265253        1.2289085283
  O        18.2278412192        8.0775620501        4.5124611772
  P         6.8051314325       10.8063888011        3.9282708422
  P         1.7114676789        7.5772217341        7.3622983319
  P        21.3818551829        0.9604894866        2.2735838747
  P        18.2472029001        9.1961116958        5.6497938234
 Ca         2.9731045061        1.6546831400        3.3769375152
 Ca        19.4623292288        3.2800086869        1.6906126681
 Ca        14.4494301581       -0.0059757193        4.9623064658
 Ca        27.7232749623        9.8934756763        6.7507993437
  O        17.2441048805        0.0611508319        2.2392712106
  O        14.0472612298        8.2920837539        5.5399850763
  O         2.6624027063        9.9211245283        3.8383940979
  O        25.5090443707        6.6067559843        7.1160751094
  O        15.4825361500        1.5104622007        0.9826133715
  O        12.3201943499        9.7507246907        4.2705114231
  O        28.8473996333       11.4181053215        2.5875308944
  O        23.7862849158        8.0985789741        5.8989725116
  P        16.4208654813        1.3580140258        2.2064687103
  P        13.2416493693        9.6163523973        5.5483672448
  P        29.7241073537       11.2373705149        3.8767684877
  P        24.6808804515        7.9870848918        7.2280482535
 Ca         4.7379376295        5.3689557806        2.5994758976
 Ca        16.1613684768        3.7577497888        4.1774834588
 Ca        11.1717989711        0.3954989522        7.4782036012
 Ca        27.5520091430        2.0476170919        5.8679145130
  O        13.9786475497        6.2846268718        3.4438352114
  O         8.9415658979        3.0379608556        6.7108348169
  O        25.4889696754        4.6343284944        5.0636055195
  O        20.3177623224        1.4030282313        8.3366863845
  O        14.7574319822        4.0413601251        2.4279678747
  O         9.6898454905        0.7891815252        5.7026828395
  O        26.2558584626        2.4039757963        3.9912215894
  O        24.9366058622       22.1587663130        7.3037048473
  P        13.8968999702        5.3005190841        2.1548605989
  P         8.8088793313        2.0339039893        5.5076310475
  P        25.2550391435        3.6751498752        3.8508742028
  P        20.2317914130        0.3953578391        7.1772998687
 Ca         7.1240867035        1.9591267834        2.9135540718
 Ca         3.8746653366       10.2174921059        6.2211516137
 Ca        18.5640567646        0.3332558914        4.5300465313
 Ca        15.4455935213        8.6290673784        7.7934476129
  O         9.3539602994       10.8709399273        0.8037559061
  O         4.3062125366        7.5680569593        4.0622215516
  O        20.8066386362        9.2058220479        2.4322805208
  O        15.7061503232        5.9244172343        5.7185455982
  O        10.3323038895       11.6463402710        3.0869191412
  O         5.2906382522        8.3783425494        6.3346928855
  O        21.7855659299        9.9772947739        4.6803350255
  O        16.6350925421        6.7564758977        7.9732681193
  P        10.3491572376       10.4887661443        1.8588171337
  P         5.2587614745        7.2463326019        5.2826689653
  P        21.7437436879        8.8586973609        3.5596689035
  P        16.7225301199        5.5956038272        6.9412120185
 Ca        12.3069701187        8.1769670342        2.5064878636
 Ca         7.1831038232        4.8861150783        5.8268658168
 Ca        23.6344567499        6.5206915829        4.2040097024
 Ca        18.6534011929        3.2685064983        7.5146268901
 Ca        13.4545982887        2.1532188719        1.8598750126
 Ca        10.1977520623       10.3824557986        5.0999873736
 Ca        24.7122437352        0.5348253047        3.5955127799
 Ca        21.5651472660        8.7468567156        6.8236360578
 Ca         4.4623385347        9.3007806518        2.4432933863
 Ca        15.9002812381        7.6470223435        4.0208904479
 Ca        10.7817859079        4.3680865065        7.2570729090
 Ca        27.2844756761        6.0980073994        5.7464509226
 Ca         1.8730207067        7.6718276188        4.1199631164
 Ca        18.4433274230        9.3076725573        2.3860232820
 Ca        13.3983439197        6.0153530009        5.6176094695
 Ca        24.6553056260        4.3905029630        7.3526295304
 Ca        10.8293912624        0.4457259936        3.4766936341
 Ca         7.5940972466        8.7569731800        6.7652605691
 Ca        27.3293748603        2.1732667232        1.9458728650
 Ca        24.1071592125       10.4095800582        5.1956948887
  O         3.9359754857        2.8888603135        4.9949680631
  O        30.6002000316       22.2782395538        8.5937943768
  O        20.4114571265        4.5622436894        3.2975133129
  O        15.2144567709        1.2481416032        6.6078847017
  H         5.0866333231        2.9797110391        4.9048277288
  H        31.2680979909       22.7056408025        8.2543089192
  H        21.7302448188        4.7862810920        3.0871781470
  H        16.4227004786        1.2755276380        6.6960809583
  O         6.6117444177        4.6113983811        3.2288711582
  O         1.2759165201        1.2145313383        6.6815072827
  O        17.8293919276        2.8718966360        5.0130318313
  O        16.6113369324       22.2904880145        8.6070841965
  H         7.7794561811        4.8179106532        3.0505858370
  H         2.4769304685        1.3049818009        6.6217971676
  H        19.0041502293        2.9398112313        4.9268166583
  H        17.3146064369       22.6990050352        8.2367261063
  O         6.2788718381        3.6815148667        4.1928656018
  O         1.1633491813        0.2921942083        7.5136407066
  O        22.7615765925        5.6564439145        2.2489546413
  O        17.7396371745        2.0066583774        5.8776671815
  H         5.0714803480        3.5635861120        4.3062117572
  H        -0.1314134606        0.1368198907        7.8162950392
  H        22.0732857758        5.2405715747        2.5949411227
  H        16.5257652377        1.9384470914        5.9192131796
  O         8.7871477579        5.6691266640        2.2279915740
  O         3.6410479331        1.9882272705        5.8968984331
  O        20.3172583693        3.6800590249        4.1829343389
  O        15.1858007040        0.3030983302        7.5367529163
  H         8.1109381177        5.2533770663        2.5951404325
  H         2.5362818400        1.9189622926        5.9704813022
  H        19.1281210058        3.6364290495        4.2555908900
  H        13.9295982922        0.2107021268        7.7574071686
  O        18.1732572127       21.5518979903        0.7878139460
  O        13.0548463512       18.2585970731        4.0795699400
  O        29.5930905398       19.8750140397        2.3798682771
  O        24.5103337730       16.6088804341        5.6954729906
  O         4.7496553932       16.5287327303        3.8358397031
  O        21.2413437822       18.1537559239        2.2048147951
  O        16.1448401035       14.9086453692        5.4781239322
  O        27.6512647598       13.3186150234        7.0940442138
  O         5.2505892288        0.6863216418        3.2970274211
  O         4.0265302882       20.4090263084        6.4979055195
  O        23.6721152874       13.8146521928        1.6378664707
  O        20.4837973741       22.0492247752        4.9044788613
  O        19.2735027172       14.1263442343        2.3280525788
  O        16.0503540311       22.3901031482        5.5859436165
  O         0.8661191244        0.9825900498        3.9203981225
  O        27.5152850258       20.7246934749        7.1914570370
  O        16.1442082706       17.5282698080        0.8811753853
  O        11.0592221268       14.2332894988        4.1443040995
  O        27.6699318936       15.8641215247        2.4760862806
  O        22.5017528790       12.6118268872        5.7850876003
  O        13.7228062839       21.8646540215        1.4847386045
  O         8.6400502482       18.5884532703        4.7487790260
  O        25.1936039429       20.2314905585        3.0575868896
  O        20.0642827730       16.9271319877        6.3573439851
  O        17.3955602844       12.9608816411        3.5162151923
  O        14.2010446577       21.2008910481        6.7976774737
  O        30.7616786189       22.8219113538        5.1309129486
  O        25.6404023833       19.5175006611        8.4256970920
  O        14.2509060984       16.2685653154        2.1091040570
  O         9.2079790779       13.0377228252        5.3875132783
  O        25.7653172927       14.6480273247        3.7188142620
  O        20.6674339681       11.4186062454        6.9986129566
  O        11.8523831564       20.6506352652        2.6837705292
  O         6.8080972831       17.3675649377        5.9200854170
  O        23.3281126622       19.0367141336        4.3003031747
  O        18.2373122242       15.7398344469        7.5621419148
  O        16.2851843735       20.3490492683        2.0301042860
  O        11.1959349997       17.0703486035        5.3001129917
  O        27.7601934085       18.6891937455        3.5872038586
  O        22.6386278320       15.4389922620        6.8932696122
  O         2.8952313439       15.3375768328        5.0732696976
  O        19.4120025838       16.9516964630        3.4158009265
  O        14.2524643058       13.7079017438        6.7183848128
  O        25.7575651922       12.0489448741        8.3212567650
  O         7.2210790839       22.4896838504        4.4682115899
  O        30.0860193985       19.1891635398        7.7040214823
  O        21.8452002200       12.6376553925        2.8366736567
  O        18.6373017735       20.8521363276        6.1224885008
  O        16.3975029365       22.9598137870        2.1036068182
  O        11.3014553998       19.6424921314        5.3790442944
  O        27.8569505457       21.2729788020        3.6638081637
  O        22.7677397950       17.9966585995        6.9808171470
  O        18.1236114044       21.4640340334        3.3078042280
  O        13.0592102554       18.1407231676        6.6237737269
  O        29.5885208500       19.8135537915        4.9136714211
  O        24.5238686141       16.5484801477        8.2207513708
  P        17.2321807100       21.5780280657        1.9843995011
  P        12.1851367497       18.3258086255        5.3348896804
  P        28.6722937855       19.9605063853        3.6721507606
  P        23.5872942016       16.6972783322        7.0027724734
 Ca        12.4243188243       16.0261311565        3.3155621774
 Ca         7.3260696189       12.6858437680        6.6115846552
 Ca        28.8693248004       17.6148270426        1.7845584209
 Ca        23.8497967794       14.2992435075        5.0308764318
  O         3.1166161513       15.0218254226        2.4930738814
  O        19.6900312691       16.6505510586        0.8750723228
  O        14.5222013508       13.4203230054        4.1496186045
  O        26.0286823162       11.7691769891        5.7654598460
  O        30.3122131429       17.2714631342        3.5076599058
  O        18.8752187423       18.9146931129        1.9115369142
  O        13.7530210785       15.6542992443        5.2189245260
  O        25.2451804180       14.0112372444        6.7953509869
  P         3.2567520772       16.0167329725        3.6972270644
  P        19.7760651611       17.6606562502        2.0327755729
  P        14.7514746982       14.3807596771        5.3656125348
  P        26.1261926759       12.7552961782        7.0476645995
 Ca        10.0867932102       19.3162206070        2.9877424934
 Ca         4.9350362752       16.1031097401        6.2995693872
 Ca        26.4241411729       20.9859882522        1.4515917534
 Ca        21.4483184724       17.7242986882        4.6763440424
  O         9.6557650876       21.9966480718        5.1512118456
  O         4.6091073487       18.6875989027        8.3942273262
  O        24.3068571778       12.1231125327        3.4779594520
  O        21.1089860655       20.3674007130        6.7739567102
  O         8.6734206941       21.1852626327        2.8805714720
  O         3.6290780498       17.9065461438        6.1082867137
  O        23.3893812404       11.2747073511        1.2286703489
  O        20.1300984290       19.5891611380        4.5123016414
  P         8.7067430866       22.3182357988        3.9281592160
  P         3.6130149230       19.0883980267        7.3623070762
  P        23.2838339935       12.4720160710        2.2735362905
  P        20.1489285989       20.7078159156        5.6497934081
 Ca         4.8749737029       13.1667910569        3.3771952743
 Ca        21.3643293142       14.7910225576        1.6905548811
 Ca        16.3511938188       11.5059779620        4.9620096121
 Ca        29.6251849587       21.4053522555        6.7507502891
  O        19.1459732348       11.5725617501        2.2391181815
  O        15.9493136988       19.8036967970        5.5399772555
  O         4.5643190312       21.4329190337        3.8385994892
  O        27.4111139021       18.1183543896        7.1159071565
  O        17.3836834773       13.0222325925        0.9828708318
  O        14.2220565955       21.2624299651        4.2703955116
  O        30.7493579257       22.9291623999        2.5874931744
  O        25.6877826483       19.6104411276        5.8991517590
  P        18.3224442621       12.8694205438        2.2064366859
  P        15.1434137483       21.1278819236        5.5484243362
  P        31.6258874130       22.7487367986        3.8767995219
  P        26.5826931902       19.4988597505        7.2281783996
 Ca         6.6389678609       16.8809829323        2.5992696915
 Ca        18.0631939163       15.2697038981        4.1772946472
 Ca        13.0734961241       11.9067295284        7.4780104085
 Ca        29.4540253547       13.5594450142        5.8679562390
  O        15.8803960719       17.7954749870        3.4438198433
  O        10.8434055631       14.5498656548        6.7105806819
  O        27.3909142677       16.1456964724        5.0636501129
  O        22.2189000520       12.9148881960        8.3367217779
  O        16.6587199452       15.5525252265        2.4278754474
  O        11.5915535206       12.3004898923        5.7029331221
  O        28.1572738864       13.9148545806        3.9913236001
  O        23.0352230754       10.6481523265        7.3036894542
  P        15.7986796063       16.8118103021        2.1547364869
  P        10.7105236923       13.5454536647        5.5076641505
  P        27.1569170902       15.1864837388        3.8510165393
  P        22.1334435749       11.9073683385        7.1773570307
 Ca         9.0254449322       13.4710207799        2.9134180565
 Ca         5.7767112631       21.7292451516        6.2210729323
 Ca        20.4660707642       11.8441826479        4.5299160760
 Ca        17.3466321732       20.1404207931        7.7935610374
  O        11.2551102910       22.3829480298        0.8039481491
  O         6.2083459190       19.0799063076        4.0625443765
  O        22.7085973918       20.7175609593        2.4320783787
  O        17.6079951502       17.4356452033        5.7184555492
  O         8.4307660659        0.1351012958        3.0869167432
  O         7.1925180002       19.8895910865        6.3349824425
  O        23.6873658025       21.4891025614        4.6800436152
  O        18.5358001532       18.2678208095        7.9733827771
  P        12.2505703607       22.0005007007        1.8587384025
  P         7.1605881465       18.7574852627        5.2825225251
  P        23.6460721360       20.3704868109        3.5599289476
  P        18.6243581098       17.1069416392        6.9411606222
 Ca        14.2082067083       19.6882365337        2.5064788030
 Ca         9.0849935927       16.3981531014        5.8271354544
 Ca        25.5364964041       18.0318827658        4.2039361496
 Ca        20.5552467903       14.7804995065        7.5145850540
 Ca        15.3558499286       13.6650853626        1.8598762473
 Ca        12.0997070207       21.8942143135        5.1001000246
 Ca        26.6140551767       12.0459684841        3.5954589342
 Ca        23.4671138821       20.2579955024        6.8236722078
 Ca         6.3632524110       20.8120506593        2.4429112768
 Ca        17.8023037245       19.1580787012        4.0209117309
 Ca        12.6836113372       15.8801731449        7.2572649034
 Ca        29.1864089827       17.6099425513        5.7465024504
 Ca         3.7750009937       19.1838700161        4.1199035413
 Ca        20.3450251489       20.8193911328        2.3860684854
 Ca        15.3003110404       17.5266063678        5.6176249435
 Ca        26.5564818825       15.9016328022        7.3525964991
 Ca        12.7312738639       11.9576364440        3.4768510573
 Ca         9.4953063215       20.2688195096        6.7654362514
 Ca        29.2311836910       13.6852739550        1.9460701872
 Ca        26.0084370019       21.9214934280        5.1957076666
  O         5.8354242239       14.4055016991        4.9967876080
  O        28.6989311023       10.7656415610        8.5938148565
  O        22.3102760121       16.0752635784        3.2990877366
  O        17.1167762132       12.7584577800        6.6061891478
  H         6.9884373390       14.4863986458        4.9016471787
  H        29.3650481525       11.1959098504        8.2550240957
  H        23.6316294272       16.2973351522        3.0868050476
  H        18.3249775796       12.7858191455        6.6952736659
  O         8.5125068489       16.1244101877        3.2299342359
  O         3.1784404069       12.7249333547        6.6792249654
  O        19.7305798181       14.3886218816        5.0149060106
  O        14.7097515029       10.7784885984        8.6071275405
  H         9.6808693776       16.3282244822        3.0508015722
  H         4.3807102557       12.8156739048        6.6226378613
  H        20.9091014313       14.4450939134        4.9256523133
  H        15.4110574250       11.1892313895        8.2369803194
  O         8.1812656968       15.1912525566        4.1918538439
  O         3.0612742336       11.8084128296        7.5145892504
  O        24.6636397040       17.1674581600        2.2491040720
  O        19.6413149095       13.5170445415        5.8740825908
  H         6.9739811389       15.0763599957        4.3084851414
  H         1.7726813135       11.6429688282        7.8163107171
  H        23.9753271015       16.7518884380        2.5954706267
  H        18.4297997412       13.4501349974        5.9224361942
  O        10.6887937336       17.1805285819        2.2273633395
  O         5.5443676914       13.4962796338        5.8965226695
  O        22.2197466225       15.1882396495        4.1822604467
  O        17.0862134769       11.8193619912        7.5393250033
  H        10.0124023555       16.7653270774        2.5957103525
  H         4.4360924467       13.4337275363        5.9687149160
  H        21.0257442140       15.1520916821        4.2553838425
  H        15.8326836295       11.7167503841        7.7566352948
  O        16.0612616020       10.3155212847       15.5353733852
  C        15.5439968494       11.2089767620       15.5624831829
  O        15.0217592116       12.1072511701       15.5902447314
     387
 i =        7, E =     -6916.9135764377
  O        16.2757906081       10.0505033851        0.7890961243
  O        11.1451876649        6.7467601676        4.0818792202
  O        27.6897866972        8.3524083129        2.3677643204
  O        22.5784876894        5.0995550110        5.6685861538
  O         2.8412165727        5.0206415276        3.8278351386
  O        19.3384446394        6.6441893252        2.2027892065
  O        14.2449913518        3.4112723920        5.4755326243
  O        25.7755360437        1.7870008182        7.0753178175
  O         7.1416437411       12.2076740887        3.3032885576
  O         2.1284021687        8.8857985508        6.4870007956
  O        21.7623180167        2.3123026310        1.6330151599
  O        18.5729959480       10.5423299799        4.9037059473
  O        17.3760717179        2.6122610109        2.3363074036
  O        14.1421028524       10.8853622277        5.5859070110
  O         2.7730720364       12.4887780691        3.9075992423
  O        25.6183741476        9.2088750097        7.1756036226
  O        14.2353481574        6.0248967191        0.8824079516
  O         9.1492277413        2.7240902591        4.1354817359
  O        25.7940172865        4.3442793544        2.4696159228
  O        20.5936419604        1.1087236625        5.7787018427
  O        11.8247451089       10.3506023706        1.4952944245
  O         6.7398316601        7.0774509173        4.7583150211
  O        23.2934463191        8.7184738491        3.0528337372
  O        18.1573090873        5.4084215376        6.3564530854
  O        15.5085640369        1.4528855404        3.5382793381
  O        12.2935507395        9.6972233157        6.8018286018
  O        28.8674955878       11.3102647039        5.1325662701
  O        23.7339492825        7.9961923959        8.4288949462
  O        12.3321272868        4.7648968670        2.1198279615
  O         7.3136940633        1.5226753892        5.3989825843
  O        23.8653597626        3.1228792185        3.7149346369
  O        22.5648121999       22.9326168402        6.9973353699
  O         9.9498926481        9.1382013816        2.6885134325
  O         4.9183066329        5.8474157834        5.9162419570
  O        21.4358911939        7.5242180235        4.3032801976
  O        16.3432451805        4.2190135780        7.5606495678
  O        14.3743055189        8.8431229977        2.0446287497
  O         9.2890910399        5.5630736520        5.3136505801
  O        25.8648053839        7.1731933369        3.5748026011
  O        20.7313262861        3.9304306011        6.8894892784
  O         1.0025384774        3.8253079279        5.0781053628
  O        17.5166260523        5.4308060444        3.4226184697
  O        12.3294956288        2.2040124053        6.7287007550
  O        23.8583996165        0.5319879973        8.3194911308
  O         5.3214027101       10.9768206724        4.4573351588
  O        28.1787931915        7.6723473665        7.6916234856
  O        19.9454095411        1.1318188709        2.8341005008
  O        16.7299491321        9.3412164425        6.1217814247
  O        14.4935629078       11.4529046142        2.1133673201
  O         9.3964780044        8.1303941104        5.3926867756
  O        25.9616149772        9.7615710773        3.6477629855
  O        20.8692791439        6.4833673153        6.9782421531
  O        16.2154752536        9.9536669376        3.3067889252
  O        11.1561832482        6.6169924624        6.6349987593
  O        27.6925885018        8.3034395255        4.9075821612
  O        22.6327155663        5.0379149177        8.2203241142
  P        15.3302676421       10.0439336650        1.9783302613
  P        10.2848341467        6.8135115307        5.3496028473
  P        26.7742500580        8.4484203512        3.6573548754
  P        21.6650271418        5.1925447202        7.0075083062
 Ca        10.5279528696        4.5475210505        3.3204704853
 Ca         5.4602634336        1.1524696837        6.6215086244
 Ca        26.9554155550        6.1111399356        1.8230038856
 Ca        21.9619628306        2.7404424778        5.0421774670
  O         1.2125006963        3.5061065652        2.4906611315
  O        17.8052022450        5.1260338710        0.8796235485
  O        12.6033877178        1.9159058203        4.1606842485
  O        24.1378747121        0.2620763143        5.7640190700
  O        28.4133424363        5.7578996476        3.4990017341
  O        16.9742121348        7.4036695794        1.9215058082
  O        11.8476474215        4.1446797755        5.2390245357
  O        23.3505583666        2.4973974832        6.7845647087
  P         1.3607118345        4.5022146061        3.6998112292
  P        17.8767038173        6.1475806169        2.0236242282
  P        12.8327843773        2.8709891931        5.3912420308
  P        24.2241668593        1.2159643870        7.0560028380
 Ca         8.2069577856        7.8149060537        2.9834513065
 Ca         3.0232529010        4.6324768592        6.3046995964
 Ca        24.4827668861        9.4928822802        1.4854423130
 Ca        19.5422643623        6.2417158720        4.6893187938
  O         7.7509332466       10.4823974478        5.1524916859
  O         2.7261963964        7.1626053316        8.3918151028
  O        22.4086732046        0.6130828544        3.4660236085
  O        19.2116425517        8.8566280340        6.7718466625
  O         6.7639868327        9.6599889710        2.8789050893
  O         1.7300670024        6.3922041838        6.1029646143
  O        25.3096775643       22.7750823138        1.2301135894
  O        18.2246551253        8.0853880087        4.5142017128
  P         6.8003418136       10.8085724973        3.9269963118
  P         1.7148326433        7.5803080595        7.3610976188
  P        21.3831956492        0.9560952191        2.2639813517
  P        18.2540374309        9.1956714845        5.6551167725
 Ca         2.9670689469        1.6458468918        3.3732541091
 Ca        19.4468709086        3.2680233870        1.6710727379
 Ca        14.4619545229       -0.0442461790        4.9502715057
 Ca        27.7056412932        9.8889308998        6.7815013433
  O        17.2413679909        0.0637723588        2.2481628044
  O        14.0384812496        8.2940869278        5.5557432338
  O         2.6642773204        9.9224331413        3.8289256378
  O        25.5109273275        6.6032353371        7.1042518791
  O        15.4727510345        1.5112204123        0.9835619152
  O        12.3188079345        9.7501140908        4.2739528298
  O        28.8458709508       11.4327781646        2.5741007769
  O        23.7931787430        8.0947397418        5.8968309756
  P        16.4332752902        1.3557025123        2.1976420238
  P        13.2332279551        9.6161283444        5.5547753141
  P        29.7255257954       11.2376626552        3.8638835377
  P        24.6789860732        8.0279121574        7.2320314936
 Ca         4.7082853717        5.3852893670        2.5951231654
 Ca        16.1363999347        3.8007969076        4.1534794023
 Ca        11.1890700197        0.3739086984        7.4610175511
 Ca        27.5258986264        2.0253501531        5.8312924815
  O        13.9669847474        6.2810038359        3.4473545573
  O         8.9443125217        3.0455705977        6.7125446900
  O        25.5073722489        4.6283296304        5.0477041949
  O        20.3004711905        1.4144406103        8.3329353974
  O        14.7473153450        4.0390085519        2.4376260765
  O         9.6876100181        0.7893132336        5.7125063203
  O        26.2586341078        2.4048835189        3.9713877007
  O        24.9331260637       22.1579307011        7.2982356793
  P        13.8942623197        5.3176101499        2.1441890600
  P         8.8012510873        2.0385104476        5.5097768083
  P        25.2733492106        3.6697589077        3.8008995920
  P        20.2330660629        0.3976462167        7.1883655076
 Ca         7.1328512009        1.9257174238        2.9110857998
 Ca         3.8573574036       10.1947464818        6.2198350325
 Ca        18.5728933728        0.3009747024        4.5128103776
 Ca        15.4737332699        8.6253021444        7.7721965364
  O         9.3389243839       10.8831578339        0.8064202305
  O         4.3104412881        7.5694115709        4.0619939019
  O        20.7995509285        9.2077255080        2.4270953015
  O        15.7035210025        5.9213542172        5.7266037507
  O        10.3300460815       11.6480083306        3.0897973594
  O         5.3011961067        8.3905294311        6.3405579152
  O        21.7904483109        9.9732223261        4.6749955912
  O        16.6164935425        6.7692425025        7.9722517884
  P        10.3434372523       10.4885963697        1.8532200033
  P         5.2577858909        7.2444816318        5.2876070549
  P        21.7431654265        8.8567850134        3.5519550176
  P        16.7236040940        5.5953485733        6.9458937483
 Ca        12.3288462629        8.1831966970        2.4884528480
 Ca         7.1882107304        4.8917455184        5.8257363279
 Ca        23.6052976938        6.5524707018        4.1754005416
 Ca        18.6758433956        3.2874238907        7.5368289996
 Ca        13.4894341533        2.1361925860        1.7646397079
 Ca        10.2153665519       10.3772594112        5.0770533493
 Ca        24.6921422906        0.5410550856        3.6272888386
 Ca        21.5577080672        8.7410987430        6.8325059733
 Ca         4.4726260501        9.3052397031        2.4577413641
 Ca        15.9111785772        7.6463619392        4.0059704736
 Ca        10.7813809436        4.3609602437        7.2166670102
 Ca        27.2857797444        6.1365144699        5.7572210183
 Ca         1.8603500170        7.6776870432        4.1480596926
 Ca        18.4502199991        9.3130908417        2.3773070271
 Ca        13.4201547650        6.0105962701        5.5872012581
 Ca        24.6323556259        4.4194085633        7.5305428443
 Ca        10.8363045263        0.4115368986        3.4690066885
 Ca         7.5815698915        8.7541723174        6.7495469802
 Ca        27.3312303348        2.1775929786        1.9848523845
 Ca        24.0961838526       10.4105397457        5.2138790098
  O         3.8338784710        2.9571716184        4.9162709388
  O        30.4785716084       22.2073155810        8.6411772208
  O        20.3248559834        4.6312944680        3.2272474890
  O        15.1025709958        1.2447486875        6.6404918210
  H         5.1427444697        2.9480583561        4.9458486478
  H        31.2914004614       22.6801509090        8.3120034412
  H        21.8022799998        4.7744093466        3.1034828182
  H        16.4238011285        1.2498712186        6.7341662057
  O         6.5896638394        4.6751488142        3.1451787063
  O         1.1460786060        1.2367028793        6.6679868716
  O        17.7984804624        2.9413105746        4.9454977000
  O        16.5067179632       22.2373342096        8.6496051085
  H         7.8356944538        4.7926275640        3.0794593806
  H         2.5214588769        1.2635027197        6.6781226543
  H        19.0188042235        2.9189907961        4.9436392769
  H        17.3216067531       22.6704730004        8.2758813613
  O         6.3996963780        3.6563955458        4.2219861075
  O         1.2688003079        0.2232053081        7.5754431098
  O        22.8828174752        5.7233322493        2.2086004786
  O        17.7895352460        1.9127239530        5.9645185402
  H         5.0152090956        3.5954577982        4.2677184938
  H        -0.2004412884        0.1578947672        7.8065811089
  H        22.0536905338        5.2729698279        2.5338335890
  H        16.5075246085        1.9460394134        5.9065796466
  O         8.9066300987        5.7444590977        2.1755931172
  O         3.6660743891        1.9227488872        5.9717266898
  O        20.3882102996        3.6643750768        4.1956719549
  O        15.2688571795        0.2815312327        7.5551749423
  H         8.1143929787        5.3056931307        2.5228565667
  H         2.5204907802        1.9394279021        5.9505414648
  H        19.1130292229        3.6619818943        4.2358214248
  H        13.9097642417        0.2375669573        7.7494510047
  O        18.1769844944       21.5609678544        0.7891117388
  O        13.0473259454       18.2588977700        4.0818960601
  O        29.5917487663       19.8641549293        2.3677627513
  O        24.4815881834       16.6106640107        5.6701552536
  O         4.7428229186       16.5317611721        3.8276055725
  O        21.2397491705       18.1557614633        2.2026184558
  O        16.1464931763       14.9225629144        5.4757680358
  O        27.6759513670       13.3009752909        7.0759413100
  O         5.2394965338        0.6964688972        3.3031435596
  O         4.0303835444       20.3968750909        6.4870201818
  O        23.6641799759       13.8239158125        1.6333887167
  O        20.4748557165       22.0541476604        4.9037034626
  O        19.2780325471       14.1229195223        2.3366094020
  O        16.0441273356       22.3968971672        5.5861836222
  O         0.8714010392        0.9770588805        3.9081016998
  O        27.5201488013       20.7205422919        7.1756316310
  O        16.1377085967       17.5373956991        0.8819063237
  O        11.0511687136       14.2354740826        4.1353684179
  O        27.6961840477       15.8548765243        2.4694048432
  O        22.4951321100       12.6210545386        5.7786764827
  O        13.7262572071       21.8627371503        1.4950978821
  O         8.6417734693       18.5882976207        4.7583161784
  O        25.1951564964       20.2300404240        3.0528815143
  O        20.0593176311       16.9204164026        6.3567951372
  O        17.4107458236       12.9640654273        3.5389538009
  O        14.1951511926       21.2087893439        6.8014504136
  O        30.7686906446       22.8214641835        5.1323136294
  O        25.6359086927       19.5072462293        8.4290898048
  O        14.2332002928       16.2774374419        2.1194569461
  O         9.2154524798       13.0341079495        5.3990827443
  O        25.7669679388       14.6349296925        3.7149190977
  O        20.6634213416       11.4205868942        6.9973306927
  O        11.8514786056       20.6500125805        2.6885503125
  O         6.8204760828       17.3585960110        5.9160283045
  O        23.3378480924       19.0362138246        4.3034303769
  O        18.2455683338       15.7303435752        7.5606002062
  O        16.2761157181       20.3546415508        2.0453085034
  O        11.1909460817       17.0747810891        5.3133058455
  O        27.7670282274       18.6845320825        3.5748054895
  O        22.6329398889       15.4422551084        6.8893856088
  O         2.9043246897       15.3368896841        5.0781428105
  O        19.4181383396       16.9430698417        3.4235719699
  O        14.2309048321       13.7151005223        6.7283304444
  O        25.7608427497       12.0433289576        8.3195158330
  O         7.2233697145       22.4887876582        4.4581772101
  O        30.0804864203       19.1840041475        7.6914087176
  O        21.8472904518       12.6432642134        2.8340686639
  O        18.6321428440       20.8527504446        6.1214106278
  O        16.3960483956       22.9651108447        2.1137016277
  O        11.2982528878       19.6421289470        5.3927431203
  O        27.8634355469       21.2730987064        3.6479340439
  O        22.7707407783       17.9951817166        6.9780369536
  O        18.1179140316       21.4646718065        3.3065569635
  O        13.0585444313       18.1281380661        6.6348442730
  O        29.5945208466       19.8149782619        4.9076024155
  O        24.5339506036       16.5494222588        8.2203937993
  P        17.2309059019       21.5552797267        1.9771441910
  P        12.1868219134       18.3250927378        5.3496426773
  P        28.6763078594       19.9599924386        3.6572774112
  P        23.5677543515       16.7037478580        7.0074710942
 Ca        12.4292209568       16.0591199847        3.3208521271
 Ca         7.3626155355       12.6641334775        6.6218246826
 Ca        28.8574739170       17.6225447315        1.8230516769
 Ca        23.8658630573       14.2530505560        5.0436191078
  O         3.1134609045       15.0178165536        2.4905382598
  O        19.7062231642       16.6392544206        0.8800647610
  O        14.5050342036       13.4277161565        4.1606973518
  O        26.0397732164       11.7737421307        5.7635599267
  O        30.3152255618       17.2696662295        3.4990927180
  O        18.8771719704       18.9173783177        1.9216505851
  O        13.7494198501       15.6564146827        5.2391430004
  O        25.2518988799       14.0090653425        6.7846109007
  P         3.2625733437       16.0140272260        3.6999016514
  P        19.7784631155       17.6568676115        2.0218369109
  P        14.7344758089       14.3825732240        5.3917743297
  P        26.1259100665       12.7287227131        7.0562944349
 Ca        10.1081440442       19.3266655131        2.9834236481
 Ca         4.9250445991       16.1441173994        6.3049572679
 Ca        26.3841164956       21.0045876311        1.4853409815
 Ca        21.4438402029       17.7530195192        4.6891909398
  O         9.6531530275       21.9941712666        5.1522584406
  O         4.6273284671       18.6735217887        8.3921285659
  O        24.3104088542       12.1241140610        3.4659712016
  O        21.1133214116       20.3682677173        6.7718156580
  O         8.6655494473       21.1717001832        2.8789542444
  O         3.6320389390       17.9033315903        6.1030538335
  O        23.4083557622       11.2635562028        1.2298271614
  O        20.1269353369       19.5973569924        4.5140505656
  P         8.7019184708       22.3203421682        3.9268857076
  P         3.6165726206       19.0915232379        7.3610267514
  P        23.2850380629       12.4676853889        2.2640113489
  P        20.1559779192       20.7067279636        5.6553065313
 Ca         4.8691721464       13.1582083035        3.3739758816
 Ca        21.3483832068       14.7789612502        1.6712711235
 Ca        16.3639418961       11.4671636247        4.9498328355
 Ca        29.6075784094       21.4007062510        6.7813544215
  O        19.1430445738       11.5747944801        2.2478930354
  O        15.9406029469       19.8056661118        5.5557153967
  O         4.5661916592       21.4340270631        3.8292464117
  O        27.4127487737       18.1144341283        7.1040984341
  O        17.3735758052       13.0229330111        0.9835175734
  O        14.2206831345       21.2617333052        4.2739163428
  O        30.7477434217       22.9439194423        2.5741193247
  O        25.6948414854       19.6065349490        5.8972608011
  P        18.3358892115       12.8676885305        2.1979503869
  P        15.1348221574       21.1275432213        5.5547194077
  P        31.6273052804       22.7490301325        3.8638197093
  P        26.5809715741       19.5371005921        7.2319558071
 Ca         6.6093296349       16.8972963124        2.5947955879
 Ca        18.0384602804       15.3128002214        4.1528236598
 Ca        13.0907617290       11.8852426024        7.4607516273
 Ca        29.4260283660       13.5386805353        5.8323358908
  O        15.8687793737       17.7921954044        3.4469817601
  O        10.8460418558       14.5573947182        6.7122084990
  O        27.4091752632       16.1397108089        5.0483709917
  O        22.2018694439       12.9261399411        8.3328732241
  O        16.6478999811       15.5506394845        2.4375163709
  O        11.5892851166       12.3006727398        5.7127097269
  O        28.1602025052       13.9158905042        3.9715151657
  O        23.0320345942       10.6473001926        7.2982604922
  P        15.7964328111       16.8274959188        2.1456683037
  P        10.7030532475       13.5500200921        5.5097885643
  P        27.1745751842       15.1815156525        3.8033807834
  P        22.1339312519       11.9103217327        7.1883804844
 Ca         9.0344059305       13.4374540162        2.9108167693
 Ca         5.7595266991       21.7059839960        6.2193523317
 Ca        20.4745177571       11.8118013271        4.5122914589
 Ca        17.3746634226       20.1366367772        7.7724774877
  O        11.2400983586       22.3950972546        0.8066603550
  O         6.2125270198       19.0811698644        4.0623611816
  O        22.7014286347       20.7196171723        2.4270112529
  O        17.6053611529       17.4327886257        5.7266074307
  O         8.4284727612        0.1367733602        3.0898343025
  O         7.2030891212       19.9017124948        6.3407785371
  O        23.6921074946       21.4852604707        4.6746999658
  O        18.5173019728       18.2806382969        7.9723693599
  P        12.2449165478       22.0003551875        1.8531236885
  P         7.1597830321       18.7558069956        5.2875735740
  P        23.6450830018       20.3680868286        3.5521280530
  P        18.6253026633       17.1065439487        6.9457333656
 Ca        14.2301067061       19.6946267692        2.4884566014
 Ca         9.0900958429       16.4037267492        5.8259257603
 Ca        25.5078349750       18.0624134012        4.1772217380
 Ca        20.5773624255       14.7991902300        7.5362980756
 Ca        15.3907561507       13.6477754510        1.7625529915
 Ca        12.1172377574       21.8888889216        5.0771904628
 Ca        26.5938086554       12.0522640400        3.6272705085
 Ca        23.4599677214       20.2524604156        6.8323587103
 Ca         6.3734950343       20.8167177460        2.4571685131
 Ca        17.8131388473       19.1567928204        4.0061836084
 Ca        12.6831603718       15.8730217579        7.2169564621
 Ca        29.1871146662       17.6480493781        5.7576496751
 Ca         3.7623448415       19.1897446569        4.1479968008
 Ca        20.3516523804       20.8243360239        2.3772763542
 Ca        15.3220291514       17.5217398836        5.5872651481
 Ca        26.5321832037       15.9290659789        7.5209825368
 Ca        12.7380685381       11.9234160868        3.4693748075
 Ca         9.4828630992       20.2659340184        6.7497479302
 Ca        29.2328362403       13.6896638369        1.9852273683
 Ca        25.9974097229       21.9224574338        5.2140225036
  O         5.7325297170       14.4739929451        4.9187848237
  O        28.5773085695       10.6935535211        8.6412658344
  O        22.2240949592       16.1439134106        3.2291270915
  O        17.0046852739       12.7552119492        6.6384342148
  H         7.0444948150       14.4537385888        4.9420002782
  H        29.3863473730       11.1717832913        8.3140106361
  H        23.7036124906       16.2853425849        3.1029477842
  H        18.3262582495       12.7598188809        6.7330056131
  O         8.4900321102       16.1883724030        3.1465039690
  O         3.0483252445       12.7476624891        6.6644500892
  O        19.7000058400       14.4575697147        4.9494407254
  O        14.6047824639       10.7246842405        8.6501202013
  H         9.7371448230       16.3027853269        3.0793128278
  H         4.4257834030       12.7740479880        6.6789027661
  H        20.9243521990       14.4243482778        4.9415631345
  H        15.4176030287       11.1615630644        8.2765190020
  O         8.3015249845       15.1662956960        4.2211947424
  O         3.1665153018       11.7394037558        7.5773111112
  O        24.7849933948       17.2343227213        2.2086773155
  O        19.6908897280       13.4234293011        5.9608597195
  H         6.9180193550       15.1085932182        4.2706058332
  H         1.7057820913       11.6635426558        7.8051148687
  H        23.9556872416       16.7841747977        2.5346753618
  H        18.4121409881       13.4580578671        5.9097507710
  O        10.8077697656       17.2555023018        2.1749685791
  O         5.5684312528       13.4309540678        5.9701598338
  O        22.2899827697       15.1736626026        4.1943358331
  O        17.1694901606       11.7976477846        7.5592835344
  H        10.0160950625       16.8179940089        2.5238529675
  H         4.4211524974       13.4544964250        5.9486237981
  H        21.0095452810       15.1775286923        4.2361183366
  H        15.8138363468       11.7433442863        7.7477624623
  O        16.2048939849       10.0672885704       15.5252118229
  C        15.5362253208       11.2255919100       15.5638712918
  O        14.8884579764       12.3363475594       15.5996775129
     387
 i =        8, E =     -6917.4160420715
  O        16.2747831613       10.0561443360        0.7920689211
  O        11.1391842844        6.7493857680        4.0881487426
  O        27.6878861823        8.3454183571        2.3636232103
  O        22.5666898512        5.0986177628        5.6664155423
  O         2.8297998738        5.0275447062        3.8183914022
  O        19.3380517904        6.6479886567        2.1993368623
  O        14.2374109829        3.4190820152        5.4767798939
  O        25.7688888030        1.7808334235        7.0721741306
  O         7.1353245054       12.2072142233        3.3052109161
  O         2.1271900196        8.8726019462        6.4879662133
  O        21.7551022627        2.3127548135        1.6288048971
  O        18.5696320656       10.5412675100        4.9078301867
  O        17.3757121325        2.6087964300        2.3357285517
  O        14.1385483107       10.8839252981        5.5854146108
  O         2.7703599173       12.4809541122        3.8953218592
  O        25.6250172755        9.2133540704        7.1659499718
  O        14.2303617136        6.0306833288        0.8809712462
  O         9.1456064194        2.7230976403        4.1334361180
  O        25.8073339677        4.3350495813        2.4628113693
  O        20.5880974822        1.1098622764        5.7816524157
  O        11.8213311837       10.3495099505        1.5008724249
  O         6.7395463915        7.0803578558        4.7653744363
  O        23.2837662604        8.7171224904        3.0571487379
  O        18.1527220351        5.4087260790        6.3598715492
  O        15.5178100970        1.4549623104        3.5397600857
  O        12.2911502102        9.7008018654        6.8008949942
  O        28.8731109087       11.3061511848        5.1279557050
  O        23.7345750095        7.9926922663        8.4284075623
  O        12.3374054304        4.7666355066        2.1215663294
  O         7.3248983661        1.5176635588        5.4049586146
  O        23.8740271937        3.1174876820        3.7085732732
  O        22.5593948431       22.9311832342        6.9965573162
  O         9.9520651918        9.1443717897        2.6862710690
  O         4.9269466249        5.8501406787        5.9132879564
  O        21.4392910510        7.5276993427        4.3025353413
  O        16.3507609303        4.2189124942        7.5609921036
  O        14.3689249659        8.8463068016        2.0510609363
  O         9.2912584559        5.5699423182        5.3202924052
  O        25.8683983410        7.1750589392        3.5679086087
  O        20.7296232319        3.9337876417        6.8903350940
  O         1.0090258061        3.8281280314        5.0723293756
  O        17.5210678085        5.4310803287        3.4236747302
  O        12.3189911541        2.2107332363        6.7376779029
  O        23.8589207676        0.5267647476        8.3234268263
  O         5.3238181619       10.9724018749        4.4462625514
  O        28.1813450740        7.6709786576        7.6873861316
  O        19.9500105532        1.1303368059        2.8293913878
  O        16.7328915946        9.3415341424        6.1192961881
  O        14.4982630669       11.4467088189        2.1140877858
  O         9.3984810010        8.1273724539        5.4005527708
  O        25.9661269705        9.7597033606        3.6373164619
  O        20.8673570556        6.4867045295        6.9792983684
  O        16.2117854903        9.9502639353        3.3018158376
  O        11.1539347651        6.6134887254        6.6379827711
  O        27.6912191774        8.3077659575        4.9014567183
  O        22.6313439846        5.0398024319        8.2145796535
  P        15.3300755574       10.0527596895        1.9773601418
  P        10.2834470515        6.8120661734        5.3583587405
  P        26.7787943575        8.4465977176        3.6459756308
  P        21.6717216084        5.1873448590        7.0027401351
 Ca        10.5393791707        4.5571094265        3.3218467976
 Ca         5.4886743002        1.1366591619        6.6282601680
 Ca        26.9483653787        6.1177071662        1.8430219098
 Ca        21.9963512797        2.7125935341        5.0634651521
  O         1.2123940073        3.5068161514        2.4912966638
  O        17.8140832400        5.1208379477        0.8843827266
  O        12.5935614976        1.9239960726        4.1720997368
  O        24.1418318428        0.2636723995        5.7671634873
  O        28.4167657292        5.7546169782        3.4937250028
  O        16.9766131118        7.4007904281        1.9266000796
  O        11.8499961423        4.1444611754        5.2490844219
  O        23.3633611229        2.4901509117        6.7827758632
  P         1.3660022098        4.4997128062        3.7073789091
  P        17.8790963587        6.1429773095        2.0198937182
  P        12.8262714944        2.8697730525        5.3859049048
  P        24.2338389937        1.2242306001        7.0520823742
 Ca         8.2176779603        7.8197167154        2.9826030193
 Ca         3.0174074571        4.6509549616        6.3071296053
 Ca        24.4681771370        9.4986480103        1.5010735382
 Ca        19.5400861880        6.2577199219        4.6988537225
  O         7.7474287475       10.4816524162        5.1501685881
  O         2.7316162044        7.1585305346        8.3855082965
  O        22.4052850590        0.6136934457        3.4566634035
  O        19.2126111720        8.8576148599        6.7685098523
  O         6.7606152441        9.6591269617        2.8806288463
  O         1.7309683300        6.4005176146        6.1087520517
  O        25.3153181444       22.7822907709        1.2332368789
  O        18.2224086727        8.0932003395        4.5181445931
  P         6.7939527300       10.8131310187        3.9279927858
  P         1.7203477274        7.5745199913        7.3521417525
  P        21.3861509497        0.9564401012        2.2611382962
  P        18.2566619015        9.1955755894        5.6541542217
 Ca         2.9644314680        1.6415431589        3.3735489053
 Ca        19.4366271783        3.2581460162        1.6559245318
 Ca        14.4643905100       -0.0624134120        4.9316171639
 Ca        27.6938268591        9.8859965116        6.7911250725
  O        17.2406121970        0.0641372708        2.2503918159
  O        14.0336859236        8.2980773813        5.5625651536
  O         2.6612116210        9.9259154689        3.8209836087
  O        25.5056180278        6.6103290457        7.1000158485
  O        15.4745559679        1.5105107094        0.9877943305
  O        12.3220514209        9.7471659935        4.2781771928
  O        28.8472841123       11.4381737112        2.5714160783
  O        23.7969111417        8.0961189744        5.8992474791
  P        16.4306410043        1.3601960304        2.2009875274
  P        13.2267911912        9.6163205171        5.5604141594
  P        29.7280276706       11.2405629425        3.8576019540
  P        24.6739627101        8.0126452789        7.2308182086
 Ca         4.6809254992        5.3989984457        2.5915641866
 Ca        16.1009414385        3.8292284954        4.1292635961
 Ca        11.1939592467        0.3630192496        7.4510737020
 Ca        27.4821572131        2.0390430800        5.8033606972
  O        13.9618450401        6.2786504171        3.4431399043
  O         8.9440711207        3.0465279563        6.7108245920
  O        25.5168236641        4.6188499564        5.0321210710
  O        20.2909815006        1.4208500112        8.3284444881
  O        14.7342955400        4.0439754136        2.4356261499
  O         9.6852977496        0.7927816228        5.7155149198
  O        26.2556974138        2.4049581118        3.9525242734
  O        24.9277247670       22.1616274991        7.2959213372
  P        13.8831148254        5.3122957038        2.1474740753
  P         8.7964367468        2.0417448789        5.5090602644
  P        25.2790275842        3.6751972831        3.8075563924
  P        20.2345849422        0.4046433384        7.1933622333
 Ca         7.1379596452        1.9083956588        2.9101017728
 Ca         3.8512707348       10.1832979250        6.2119860216
 Ca        18.5776144169        0.2816596629        4.4993226934
 Ca        15.4857554056        8.6232542292        7.7616810098
  O         9.3335166858       10.8862873919        0.8116299966
  O         4.3148006587        7.5700299383        4.0654133665
  O        20.7980353165        9.2070169273        2.4271692953
  O        15.7067083691        5.9205344218        5.7335310415
  O        10.3298308785       11.6417744636        3.0849110645
  O         5.3066560798        8.3912246228        6.3420723125
  O        21.7939789653        9.9683182690        4.6701351160
  O        16.6095399173        6.7699239967        7.9685206338
  P        10.3381267344       10.4911484713        1.8578544195
  P         5.2609604277        7.2399187129        5.2883694949
  P        21.7447776803        8.8559293858        3.5482332524
  P        16.7208655795        5.5926092830        6.9453266934
 Ca        12.3394727893        8.1836717700        2.4794203499
 Ca         7.1910527975        4.8948852196        5.8268563460
 Ca        23.5976691349        6.5621094361        4.1770694328
 Ca        18.6890221163        3.3011791774        7.5541207544
 Ca        13.5080731309        2.1311156103        1.7437789028
 Ca        10.2244726466       10.3744855823        5.0650715395
 Ca        24.6828696879        0.5460632622        3.6430977217
 Ca        21.5554705089        8.7376697084        6.8374582515
 Ca         4.4782712085        9.3063702036        2.4692106567
 Ca        15.9157675146        7.6457805804        3.9989889041
 Ca        10.7819398357        4.3553085536        7.1942656607
 Ca        27.2788103587        6.1511182301        5.7658925290
 Ca         1.8541221625        7.6804755187        4.1632199840
 Ca        18.4527445491        9.3163605157        2.3720152915
 Ca        13.4305843658        6.0059968869        5.5726611853
 Ca        24.6173824802        4.4279932883        7.5727064495
 Ca        10.8447723945        0.3976177068        3.4635621399
 Ca         7.5756723379        8.7525162952        6.7366551290
 Ca        27.3309061529        2.1810684203        2.0087458760
 Ca        24.0914352888       10.4109416642        5.2232407545
  O         3.8290789450        3.0222333553        4.8382087113
  O        30.4517902870       22.1993133329        8.6465469198
  O        20.3174591999        4.6503087638        3.2109992204
  O        15.1011115051        1.2530188062        6.6656531041
  H         5.1564582304        2.9510009749        4.9529601090
  H        31.2961174452       22.6424022540        8.3664595317
  H        21.8145394569        4.7665991812        3.1157848605
  H        16.4074083211        1.2741895089        6.7081755298
  O         6.6152540205        4.7011610432        3.1017360102
  O         1.1373015437        1.2247572580        6.6878757708
  O        17.8555834589        2.9422581925        4.9464293430
  O        16.4789222193       22.2224144464        8.6577557009
  H         7.8229607597        4.7741360352        3.1009322267
  H         2.5485124779        1.2639420954        6.6844793725
  H        19.0005918374        2.9365100379        4.9238295796
  H        17.3193544348       22.6470992601        8.3058880862
  O         6.4178368985        3.6289333818        4.2540626494
  O         1.3030443585        0.2206508415        7.5961487234
  O        22.9131770022        5.7320541069        2.2055510944
  O        17.7668629586        1.8914568761        5.9786726845
  H         4.9920329240        3.5900284472        4.2670502302
  H        -0.2124379739        0.1724109112        7.7900276089
  H        22.0490075447        5.3073143553        2.4817484435
  H        16.5227809405        1.9176392424        5.9349210966
  O         8.9423715708        5.7656813939        2.1663858793
  O         3.6137366401        1.8712748270        6.0342859611
  O        20.3523716829        3.6836954955        4.1759018681
  O        15.2657894813        0.2727688516        7.5681112707
  H         8.1134637887        5.3427262418        2.4703821349
  H         2.5428356233        1.9291596370        5.9607518091
  H        19.1262853205        3.6434693629        4.2572563581
  H        13.9364292703        0.2418922172        7.7496144179
  O        18.1758929811       21.5666157933        0.7919868286
  O        13.0412916006       18.2615965034        4.0882282953
  O        29.5898908512       19.8571679632        2.3636163654
  O        24.4703652749       16.6094908810        5.6682925275
  O         4.7314777326       16.5388566953        3.8180286328
  O        21.2392082768       18.1594447676        2.1993431243
  O        16.1389555092       14.9304928288        5.4770799185
  O        27.6694579685       13.2957239936        7.0725033097
  O         5.2333332568        0.6959707923        3.3051046143
  O         4.0291986352       20.3837079289        6.4880357443
  O        23.6570078874       13.8242810929        1.6292076852
  O        20.4714596575       22.0531834668        4.9077895451
  O        19.2780247760       14.1192908731        2.3362167176
  O        16.0404981445       22.3954106605        5.5857044504
  O         0.8686515762        0.9692711750        3.8960109450
  O        27.5265186794       20.7244335146        7.1662441581
  O        16.1328622082       17.5432239106        0.8813797279
  O        11.0474548886       14.2344706305        4.1333576488
  O        27.7092926130       15.8454070138        2.4631991956
  O        22.4895219977       12.6221559885        5.7814956786
  O        13.7228578382       21.8617175798        1.5006576265
  O         8.6414970807       18.5911745116        4.7654175440
  O        25.1857117003       20.2286458565        3.0570171022
  O        20.0546365079       16.9208735541        6.3603830203
  O        17.4201086617       12.9661142868        3.5404858815
  O        14.1927451495       21.2123799126        6.8005420109
  O        30.7743964770       22.8173318636        5.1276656169
  O        25.6365498487       19.5037161107        8.4286952269
  O        14.2383460619       16.2793817991        2.1212061966
  O         9.2267419745       13.0291263702        5.4050709263
  O        25.7755311771       14.6294409255        3.7087058229
  O        20.6579968425       11.4194750814        6.9969289175
  O        11.8536452265       20.6562079982        2.6863006354
  O         6.8290526576       17.3613009079        5.9130915896
  O        23.3412466129       19.0393656211        4.3029652112
  O        18.2531560250       15.7301181952        7.5610031199
  O        16.2704810977       20.3577692953        2.0520522975
  O        11.1931096631       17.0816903137        5.3200427586
  O        27.7706114365       18.6863569877        3.5679515103
  O        22.6312344167       15.4456142172        6.8901785505
  O         2.9107092114       15.3397353396        5.0723364713
  O        19.4225346805       16.9434448403        3.4250269400
  O        14.2203417772       13.7217461501        6.7374576684
  O        25.7607082215       12.0381348876        8.3234785267
  O         7.2258232320       22.4844791691        4.4473337655
  O        30.0830083565       19.1826260353        7.6871484256
  O        21.8518433153       12.6416030443        2.8292882968
  O        18.6349676563       20.8530086165        6.1188777621
  O        16.4007850825       22.9591449105        2.1145326549
  O        11.3003027971       19.6390659384        5.4006516108
  O        27.8680574541       21.2711807600        3.6375152816
  O        22.7693063248       17.9980258545        6.9789648669
  O        18.1142521767       21.4613075726        3.3012486709
  O        13.0563023710       18.1247110370        6.6378078520
  O        29.5931659411       19.8192964796        4.9015666373
  O        24.5330991188       16.5511800986        8.2148528580
  P        17.2308523558       21.5641261652        1.9760786876
  P        12.1854317559       18.3237156285        5.3583208474
  P        28.6806417003       19.9582934661        3.6458748272
  P        23.5738694081       16.6989176578        7.0030587261
 Ca        12.4407062823       16.0688027530        3.3221212836
 Ca         7.3910171535       12.6483053408        6.6285972072
 Ca        28.8503700862       17.6291322931        1.8430744723
 Ca        23.9001968027       14.2257580689        5.0652800280
  O         3.1134959245       15.0185470546        2.4912286153
  O        19.7148928940       16.6340673229        0.8837685196
  O        14.4951235798       13.4357641690        4.1722239158
  O        26.0436804615       11.7753973622        5.7670279086
  O        30.3186537383       17.2663357352        3.4938876218
  O        18.8806463018       18.9145832608        1.9269427904
  O        13.7517235627       15.6562302011        5.2492932292
  O        25.2647914427       14.0019976550        6.7827618302
  P         3.2677165719       16.0114296066        3.7074298628
  P        19.7804790592       17.6527253909        2.0183221598
  P        14.7279701037       14.3812943894        5.3862013553
  P        26.1358784578       12.7373269437        7.0522748548
 Ca        10.1189107192       19.3314192166        2.9825536329
 Ca         4.9190915638       16.1627968728        6.3075845173
 Ca        26.3694593810       21.0103173233        1.5010256589
 Ca        21.4416634664       17.7691556489        4.6987796680
  O         9.6496414069       21.9934104076        5.1498840010
  O         4.6327873983       18.6693431559        8.3859010770
  O        24.3069814555       12.1246809417        3.4565606139
  O        21.1139750122       20.3692947441        6.7684537728
  O         8.6621327880       21.1708402127        2.8807151802
  O         3.6328677111       17.9118159894        6.1088380770
  O        23.4139642372       11.2707938093        1.2329774548
  O        20.1246475614       19.6051746437        4.5178636872
  P         8.6956339875       22.3248783536        3.9279180353
  P         3.6221232468       19.0857063652        7.3519651085
  P        23.2882239013       12.4679608785        2.2612425492
  P        20.1590551853       20.7065586372        5.6545548041
 Ca         4.8666415068       13.1540970854        3.3747015983
 Ca        21.3378845785       14.7692045420        1.6563545748
 Ca        16.3664079469       11.4488643568        4.9309080897
 Ca        29.5955969952       21.3977477818        6.7908890494
  O        19.1422582595       11.5749316380        2.2499978511
  O        15.9357538126       19.8096679334        5.5625399765
  O         4.5631345621       21.4374771449        3.8213815572
  O        27.4075137886       18.1212937040        7.0999119715
  O        17.3756860296       13.0221663816        0.9878402414
  O        14.2239087494       21.2587636985        4.2781426805
  O        30.7491783459       22.9494511937        2.5714329949
  O        25.6988506208       19.6076837004        5.8996602544
  P        18.3330683529       12.8721604244        2.2014769200
  P        15.1284957364       21.1277857136        5.5603071475
  P        31.6297080955       22.7518380656        3.8575474728
  P        26.5757212542       19.5223087951        7.2302060414
 Ca         6.5819564953       16.9110235901        2.5911552368
 Ca        18.0029866564       15.3410433126        4.1281829428
 Ca        13.0957289061       11.8743600962        7.4508110970
 Ca        29.3817714412       13.5527040136        5.8048886922
  O        15.8637658458       17.7901296408        3.4427876459
  O        10.8457612655       14.5583480066        6.7105024175
  O        27.4185834847       16.1304212376        5.0332729728
  O        22.1918890193       12.9326253442        8.3288189350
  O        16.6348970397       15.5552659295        2.4357664535
  O        11.5869424250       12.3042155185        5.7156588424
  O        28.1571198908       13.9161980217        3.9528287055
  O        23.0256733751       10.6509708516        7.2954895504
  P        15.7852022834       16.8225519763        2.1480295083
  P        10.6982580959       13.5532016209        5.5089921692
  P        27.1806089441       15.1868341151        3.8093170813
  P        22.1365381849       11.9159091686        7.1929754584
 Ca         9.0396273066       13.4200020653        2.9097618280
 Ca         5.7535350451       21.6940222782        6.2111281219
 Ca        20.4789946323       11.7926739044        4.4985151346
 Ca        17.3866974176       20.1345633181        7.7619770192
  O        11.2347834495       22.3981565422        0.8118615544
  O         6.2168575527       19.0817504236        4.0657904983
  O        22.6997645030       20.7189763056        2.4271143102
  O        17.6085087611       17.4320121854        5.7335607317
  O         8.4282510199        0.1305126574        3.0849523434
  O         7.2086199564       19.9024063500        6.3422660601
  O        23.6956992103       21.4802369793        4.6698473999
  O        18.5102876811       18.2812538563        7.9685970406
  P        12.2395980196       22.0029383747        1.8577686666
  P         7.1630092891       18.7512824345        5.2883941183
  P        23.6463851576       20.3674254488        3.5484276722
  P        18.6226495870       17.1040391089        6.9451671614
 Ca        14.2407035618       19.6950729310        2.4793661057
 Ca         9.0928831533       16.4067452948        5.8268225552
 Ca        25.5001335872       18.0721460618        4.1793089455
 Ca        20.5905617868       14.8130341355        7.5531457564
 Ca        15.4094241250       13.6426799579        1.7412325198
 Ca        12.1262996730       21.8860874189        5.0652079166
 Ca        26.5846608289       12.0573478579        3.6430407170
 Ca        23.4574304562       20.2488737054        6.8370437023
 Ca         6.3791483585       20.8179245782        2.4685260790
 Ca        17.8178410614       19.1559134171        3.9992487598
 Ca        12.6837575074       15.8673026124        7.1945206301
 Ca        29.1802069328       17.6626393943        5.7663140607
 Ca         3.7560585156       19.1924920907        4.1631612273
 Ca        20.3542515376       20.8273240563        2.3719778191
 Ca        15.3324084858       17.5170726356        5.5727354826
 Ca        26.5166598979       15.9371834644        7.5607217670
 Ca        12.7465541300       11.9095184522        3.4639896923
 Ca         9.4770136426       20.2643108977        6.7368373930
 Ca        29.2324234822       13.6932289527        2.0091852301
 Ca        25.9926768176       21.9225827656        5.2232884857
  O         5.7277426508       14.5378186051        4.8404572032
  O        28.5502288047       10.6847597000        8.6467555449
  O        22.2173632194       16.1625883944        3.2121071896
  O        17.0030563513       12.7632909169        6.6636859673
  H         7.0584327870       14.4565887795        4.9491186745
  H        29.3898251452       11.1352233439        8.3693680798
  H        23.7159185790       16.2774917863        3.1152358811
  H        18.3098612357       12.7838633827        6.7068909285
  O         8.5158700850       16.2147480524        3.1028995858
  O         3.0394103099       12.7357704632        6.6842078518
  O        19.7571978510       14.4576115148        4.9512177724
  O        14.5767634862       10.7096070039        8.6585104011
  H         9.7244058213       16.2843524450        3.1005050823
  H         4.4530190877       12.7744842607        6.6848181283
  H        20.9065244307       14.4428870849        4.9213467254
  H        15.4150376416       11.1385503496        8.3068632032
  O         8.3190016281       15.1388902995        4.2535050867
  O         3.2010666767       11.7361566873        7.5977381411
  O        24.8154742015       17.2429233426        2.2056190474
  O        19.6678276187       13.4027599193        5.9760750344
  H         6.8950864344       15.1030812144        4.2703488562
  H         1.6958031428       11.6778840227        7.7874451871
  H        23.9509570621       16.8186233498        2.4827147193
  H        18.4276379727       13.4297978518        5.9376189125
  O        10.8434083693       17.2767671672        2.1657934982
  O         5.5153699054       13.3799431415        6.0322242282
  O        22.2543261950       15.1933031582        4.1749932574
  O        17.1665667689       11.7892029759        7.5723539448
  H        10.0150390573       16.8550588332        2.4718108196
  H         4.4441141330       13.4439095327        5.9589009229
  H        21.0221867845       15.1583914055        4.2578902058
  H        15.8412962243       11.7479669292        7.7474924946
  O        16.1988316763       10.0755029442       15.5252442788
  C        15.5429649593       11.2144506853       15.5638592864
  O        14.8871184148       12.3377487323       15.6005931842
     387
 i =        9, E =     -6918.0835415623
  O        16.2711777685       10.0783056516        0.8022123010
  O        11.1181571889        6.7608512203        4.1124993371
  O        27.6832591483        8.3171148734        2.3442281154
  O        22.5276241269        5.0936828091        5.6559748374
  O         2.7893196227        5.0621846641        3.7769442557
  O        19.3367805151        6.6646143322        2.1835864496
  O        14.2067748131        3.4490666529        5.4806772086
  O        25.7446183530        1.7594232753        7.0625904129
  O         7.1094057175       12.2035386184        3.3110118013
  O         2.1240795099        8.8271195199        6.4895255366
  O        21.7264174368        2.3152343259        1.6109057098
  O        18.5580813124       10.5386727558        4.9217743899
  O        17.3747124344        2.5975261281        2.3324549883
  O        14.1269326182       10.8782769679        5.5823204775
  O         2.7619842054       12.4552683733        3.8440121074
  O        25.6400473646        9.2174845746        7.1304797915
  O        14.2071892239        6.0502803232        0.8825288496
  O         9.1423644173        2.7227234575        4.1312978067
  O        25.8548037318        4.2972555894        2.4395017917
  O        20.5690386653        1.1127126549        5.7938153036
  O        11.8071626911       10.3460027545        1.5227775388
  O         6.7414183963        7.0938305992        4.7921496807
  O        23.2461496899        8.7116555555        3.0728863483
  O        18.1374304527        5.4119001971        6.3719515678
  O        15.5508918724        1.4628696246        3.5446346281
  O        12.2786417049        9.7147614399        6.7990204238
  O        28.8932526583       11.2892168704        5.1107419461
  O        23.7373035518        7.9797251286        8.4268333101
  O        12.3583530475        4.7721795059        2.1266310097
  O         7.3606412075        1.4922410670        5.4420201765
  O        23.9085604726        3.0984945780        3.6858152566
  O        22.5428577399       22.9255798822        6.9955794393
  O         9.9600702877        9.1682073739        2.6784459336
  O         4.9562330655        5.8576737062        5.9041949360
  O        21.4503090088        7.5394049702        4.2998339387
  O        16.3812463241        4.2174250902        7.5641405066
  O        14.3522070933        8.8637346731        2.0763673119
  O         9.2976206610        5.5944861855        5.3456392197
  O        25.8786158320        7.1818239809        3.5416566139
  O        20.7241338853        3.9459094792        6.8935734523
  O         1.0309421360        3.8363816211        5.0562608235
  O        17.5368810746        5.4345759834        3.4259796503
  O        12.2823219257        2.2401306517        6.7690894817
  O        23.8631977373        0.5124266834        8.3285524197
  O         5.3243290342       10.9540697101        4.4052870726
  O        28.1940816073        7.6647950211        7.6700746452
  O        19.9670795558        1.1228568149        2.8117884206
  O        16.7461553680        9.3431185872        6.1091511779
  O        14.5166503816       11.4268585115        2.1162891358
  O         9.4053439812        8.1177674120        5.4303256047
  O        25.9832118717        9.7529455163        3.5954397710
  O        20.8644228437        6.4935471380        6.9836345807
  O        16.1998024008        9.9351667370        3.2846239655
  O        11.1467214359        6.6005511884        6.6522528070
  O        27.6855465517        8.3236861543        4.8792550535
  O        22.6275775344        5.0463993018        8.1956653805
  P        15.3262088580       10.0807184411        1.9721837968
  P        10.2796896407        6.8083054777        5.3902703403
  P        26.7956453848        8.4429456872        3.6044966297
  P        21.6882436698        5.1742867074        6.9830784557
 Ca        10.6035960434        4.6114742130        3.3296438356
 Ca         5.5740977158        1.0759921746        6.6767841494
 Ca        26.9214908424        6.1415316761        1.9176537890
 Ca        22.1052885535        2.6164452852        5.1354839931
  O         1.2138224755        3.5093049791        2.4952455329
  O        17.8515574060        5.0986034710        0.8989552680
  O        12.5550282518        1.9477709322        4.2081443369
  O        24.1563701484        0.2695317174        5.7797796314
  O        28.4292666219        5.7428927888        3.4743276395
  O        16.9863036532        7.3889383951        1.9437209975
  O        11.8578615183        4.1464178178        5.2825283618
  O        23.4144630763        2.4695348522        6.7773694893
  P         1.3807602754        4.4922889834        3.7267406118
  P        17.8877145439        6.1270349114        2.0124662329
  P        12.8031269973        2.8675258796        5.3779168605
  P        24.2693088088        1.2431298856        7.0508912876
 Ca         8.2593195597        7.8346505107        2.9788561478
 Ca         2.9983745563        4.7135950831        6.3142289375
 Ca        24.4150154575        9.5197355638        1.5600057386
 Ca        19.5319688581        6.3166192731        4.7360948065
  O         7.7323189816       10.4802586568        5.1421652627
  O         2.7509646414        7.1423389861        8.3592175665
  O        22.3945344817        0.6152307085        3.4263919084
  O        19.2183235416        8.8607576655        6.7573742419
  O         6.7473852138        9.6583067206        2.8882783880
  O         1.7328859104        6.4307098166        6.1284118931
  O        25.3370945155       22.8085007368        1.2421401980
  O        18.2135317665        8.1199663402        4.5295460024
  P         6.7438572481       10.7900277114        3.9413248977
  P         1.7383618871        7.5497819285        7.3231028862
  P        21.3947491002        0.9633329118        2.2495271775
  P        18.2636404532        9.1980656602        5.6520856865
 Ca         2.9227951937        1.6247816449        3.3852644418
 Ca        19.3977538666        3.2200262472        1.5989310979
 Ca        14.4745700494       -0.1271913537        4.8628968183
 Ca        27.6486675957        9.8744204686        6.8255504854
  O        17.2370653563        0.0665975326        2.2580474057
  O        14.0177604668        8.3110812438        5.5870519569
  O         2.6506954354        9.9365731769        3.7873206923
  O        25.4845484339        6.6335280075        7.0840999305
  O        15.4820798386        1.5076406609        1.0021841536
  O        12.3326074685        9.7358608689        4.2913426955
  O        28.8516956622       11.4568018726        2.5616928294
  O        23.8091147986        8.1014807011        5.9065817117
  P        16.4222039524        1.3731653253        2.2160250991
  P        13.2048095459        9.6164431291        5.5816726389
  P        29.7341073507       11.2492583725        3.8323493163
  P        24.6631066389        7.9681532056        7.2266956641
 Ca         4.5719882254        5.4746833200        2.5801823530
 Ca        15.9920041647        3.9269968603        4.0473846688
 Ca        11.2108595300        0.3228209344        7.4130634980
 Ca        27.3732199393        2.0862464858        5.7045473832
  O        13.9425823443        6.2699594227        3.4272621135
  O         8.9412197276        3.0511782511        6.7043404058
  O        25.5549501510        4.5893938299        4.9804587347
  O        20.2519815457        1.4494589474        8.3147533510
  O        14.6845909533        4.0595795318        2.4250093452
  O         9.6772329973        0.8059430054        5.7248928974
  O        26.2438689043        2.4019324628        3.8819188242
  O        24.9065349250       22.1746051032        7.2883608026
  P        13.8389014560        5.3008021677        2.1502175551
  P         8.7945433369        2.0543730044        5.5170751222
  P        25.2972584032        3.6927360970        3.8188504336
  P        20.2355706002        0.4286576951        7.2045176423
 Ca         7.1588022939        1.8412348905        2.8011644991
 Ca         3.8247606765       10.1408446477        6.1805888732
 Ca        18.5947422417        0.2111705468        4.4474905047
 Ca        15.5293501930        8.6161851404        7.7222350823
  O         9.3150028155       10.8855110950        0.8207342165
  O         4.3308318131        7.5721902067        4.0790192817
  O        20.7914703335        9.2041538718        2.4268499192
  O        15.7173677191        5.9183411983        5.7560096108
  O        10.3315335893       11.6158633714        3.0674122131
  O         5.3273992275        8.3925713461        6.3473442762
  O        21.8086145401        9.9500194202        4.6536153957
  O        16.5825580565        6.7706253063        7.9544163119
  P        10.3373433073       10.4603833354        1.8596354204
  P         5.2767514719        7.2270964020        5.2915161063
  P        21.7488977283        8.8526804435        3.5356783092
  P        16.7109277688        5.5828100940        6.9461034852
 Ca        12.3781284011        8.1845789943        2.4448346548
 Ca         7.2021916242        4.9303095905        5.8499115986
 Ca        23.5702997180        6.5980811154        4.1863611032
 Ca        18.7379907541        3.3529515234        7.6182835192
 Ca        13.5785803945        2.1116901750        1.6681345516
 Ca        10.2730212737       10.3273094907        5.0452227584
 Ca        24.6488435503        0.5652022661        3.7009477045
 Ca        21.5472222579        8.7239528655        6.8570826284
 Ca         4.5002264123        9.3102177091        2.5146263931
 Ca        15.9324407817        7.6436711677        3.9721227751
 Ca        10.7842667855        4.3321633102        7.1094497308
 Ca        27.2518127525        6.2074547629        5.7988529330
 Ca         1.8307565413        7.6915683425        4.2198620435
 Ca        18.4612517257        9.3291620585        2.3504758782
 Ca        13.4684074931        5.9880352712        5.5192587883
 Ca        24.5600302942        4.4600265688        7.6816437233
 Ca        10.9083689275        0.3320639977        3.4478770128
 Ca         7.5544954378        8.7456682400        6.6847141327
 Ca        27.3304230021        2.1958785308        2.0981874221
 Ca        24.0741309459       10.4122965171        5.2597091060
  O         3.8544473557        3.1311706291        4.7292714375
  O        30.3601733738       22.1793478703        8.6609003294
  O        20.2965396703        4.7174075291        3.1538108224
  O        15.1027739399        1.2833134466        6.7641382971
  H         5.2024693781        2.9609739597        4.9830066349
  H        31.3297210398       22.5334649803        8.4753968055
  H        21.8658777077        4.7487307010        3.1500695795
  H        16.3362298836        1.3681028818        6.6114205748
  O         6.7113429336        4.8100983170        2.9927987364
  O         1.1074872062        1.1838329695        6.7531012978
  O        17.9645207326        2.9446603761        4.9518711952
  O        16.3902396362       22.1725991538        8.6840493338
  H         7.7646649169        4.7256158063        3.1648904370
  H         2.6574497517        1.2738225416        6.7033929126
  H        18.9237708088        2.9942148089        4.8570448967
  H        17.3017611549       22.5559550468        8.4148253600
  O         6.4556691160        3.5199961080        4.3629999232
  O         1.4119816323        0.2096323403        7.6783422400
  O        23.0172945579        5.7565465763        2.2010892200
  O        17.6832731297        1.8198120077        6.0237467329
  H         4.8857435955        3.5650251287        4.2737009645
  H        -0.2715195464        0.2024456273        7.7494288795
  H        22.0295413688        5.4162516291        2.3728111697
  H        16.5906646437        1.8126296767        6.0385711772
  O         9.0513088446        5.8335897183        2.1446098274
  O         3.5047993663        1.7623375532        6.1432232349
  O        20.2434344091        3.7472373471        4.1104172149
  O        15.2432847036        0.2393754051        7.6146571881
  H         8.1101785738        5.4516635156        2.3614448611
  H         2.6254895308        1.9015535547        5.9880439878
  H        19.1898340652        3.5809428451        4.3314085187
  H        14.0453665441        0.2496399769        7.7569246580
  O        18.1722734221       21.5889522927        0.8014517504
  O        13.0201764606       18.2733200432        4.1126588621
  O        29.5852683977       19.8288940582        2.3442511677
  O        24.4334678062       16.6038610655        5.6591840197
  O         4.6910443262       16.5742276477        3.7760148547
  O        21.2376507694       18.1756268638        2.1842704809
  O        16.1084987722       14.9608773750        5.4810844586
  O        27.6454226717       13.2776121418        7.0622964531
  O         5.2091689727        0.6929035201        3.3107682213
  O         4.0261442871       20.3383706011        6.4897903496
  O        23.6285162921       13.8266490703        1.6113346863
  O        20.4598663427       22.0506012826        4.9217733865
  O        19.2782267363       14.1077644141        2.3334907138
  O        16.0285857097       22.3896385483        5.5827086137
  O         0.8601180908        0.9436498608        3.8454306475
  O        27.5407491108       20.7268155561        7.1313409577
  O        16.1097893071       17.5631661065        0.8852976666
  O        11.0484038486       14.2359159336        4.1339691650
  O        27.7562200913       15.8071740410        2.4417906492
  O        22.4703902841       12.6248381071        5.7933854623
  O        13.7087265119       21.8585107454        1.5224915962
  O         8.6434074375       18.6045632218        4.7923509997
  O        25.1484550163       20.2230172956        3.0725512859
  O        20.0391407954       16.9246452715        6.3727950579
  O        17.4536481059       12.9739568615        3.5453930601
  O        14.1802176455       21.2264264880        6.7987655591
  O        30.7948338831       22.8002132987        5.1102959776
  O        25.6395459911       19.4907386788        8.4271184928
  O        14.2592215989       16.2857799517        2.1259137857
  O         9.2632446376       13.0026954297        5.4490882555
  O        25.8100174285       14.6102572213        3.6865257826
  O        20.6415405982       11.4145750837        6.9967269774
  O        11.8616023955       20.6801269099        2.6784458862
  O         6.8580653871       17.3688132060        5.9040627165
  O        23.3522691965       19.0502691727        4.3010827497
  O        18.2839439232       15.7283315914        7.5642539562
  O        16.2528940887       20.3750971170        2.0784093311
  O        11.1994579443       17.1063400258        5.3456279943
  O        27.7806449718       18.6930306013        3.5418570940
  O        22.6260076816       15.4579006018        6.8931801451
  O         2.9322046770       15.3480202257        5.0562064594
  O        19.4382656198       16.9471727430        3.4281637347
  O        14.1835486879       13.7509155288        6.7692513228
  O        25.7638970391       12.0242718600        8.3279564251
  O         7.2265743141       22.4665427351        4.4070502457
  O        30.0956945914       19.1764570554        7.6697058807
  O        21.8688764975       12.6336220637        2.8114090111
  O        18.6479476680       20.8542206716        6.1087506951
  O        16.4193420854       22.9398672775        2.1170158266
  O        11.3073192260       19.6293345887        5.4305517660
  O        27.8853082983       21.2644254676        3.5957008391
  O        22.7676463878       18.0038592169        6.9829671252
  O        18.1022653100       21.4464079712        3.2829210242
  O        13.0490946540       18.1120336582        6.6518680450
  O        29.5873623533       19.8352566517        4.8795170413
  O        24.5308689328       16.5574408603        8.1965222604
  P        17.2275615091       21.5920325534        1.9714313221
  P        12.1816747213       18.3202179685        5.3902070316
  P        28.6971882106       19.9547794397        3.6044183721
  P        23.5887449735       16.6864701243        6.9846073091
 Ca        12.5164057612       16.1325969976        3.3311490817
 Ca         7.4695243487       12.5842534314        6.6926883560
 Ca        28.8233480622       17.6529785333        1.9177464847
 Ca        24.0091340765       14.1313007076        5.1383357087
  O         3.1153958692       15.0210872322        2.4953324170
  O        19.7511840698       16.6110191527        0.8948718640
  O        14.4563204255       13.4592953941        4.2084615623
  O        26.0582562261       11.7819535825        5.7806400154
  O        30.3310390216       17.2544931031        3.4747282052
  O        18.8932261727       18.9031134342        1.9445091227
  O        13.7594552269       15.6582081292        5.2829253747
  O        25.3157966925       13.9821391150        6.7772709990
  P         3.2821748409       16.0037245020        3.7266207224
  P        19.7884838022       17.6388610753        2.0124423232
  P        14.7048134286       14.3789154373        5.3777447096
  P        26.1718277000       12.7560483771        7.0515282038
 Ca        10.1607275070       19.3461682956        2.9787397464
 Ca         4.8997397844       16.2262210925        6.3156578381
 Ca        26.3162401188       21.0312536819        1.5600242547
 Ca        21.4333192678       17.8284419634        4.7362140151
  O         9.6345627041       21.9919356487        5.1417519463
  O         4.6522079910       18.6527151032        8.3597896108
  O        24.2963036416       12.1260914143        3.4262737475
  O        21.1194228029       20.3723680787        6.7579125748
  O         8.6486976186       21.1700127112        2.8884979707
  O         3.6345056878       17.9425978095        6.1284420394
  O        23.4357883073       11.2970224396        1.2419181393
  O        20.1158685003       19.6318942802        4.5289234649
  P         8.6561541527       22.3137292523        3.9367443829
  P         3.6402438276       19.0609117846        7.3227315884
  P        23.2971501204       12.4745744008        2.2498453143
  P        20.1663618669       20.7095262526        5.6521420067
 Ca         4.8087222931       13.1368792194        3.3896631915
 Ca        21.2984993010       14.7313506887        1.6001350097
 Ca        16.3765885125       11.3838216328        4.8614207481
 Ca        29.5500275761       21.3860306350        6.8249399431
  O        19.1383521954       11.5771171320        2.2573811729
  O        15.9195459651       19.8227042524        5.5870477044
  O         4.5526293548       21.4479934073        3.7880658448
  O        27.3865589836       18.1436029609        7.0839364387
  O        17.3844173078       13.0191329537        1.0027133398
  O        14.2343679730       21.2473961990        4.2913282572
  O        30.7536023247       22.9685048234        2.5616616658
  O        25.7115574509       19.6122688168        5.9066312230
  P        18.3237765865       12.8843089978        2.2168576264
  P        15.1069397225       21.1280155564        5.5813862982
  P        31.6355445350       22.7602676364        3.8323454000
  P        26.5645299581       19.4788622723        7.2255531457
 Ca         6.4730192215       16.9994881423        2.5782628006
 Ca        17.8940493827       15.4380698700        4.0452657931
 Ca        13.1129292640       11.8342345119        7.4128859526
 Ca        29.2728341674       13.6009778521        5.7076282512
  O        15.8448914107       17.7820722797        3.4269365705
  O        10.8427570966       14.5628826314        6.7039755710
  O        27.4565226395       16.1014994537        4.9834717443
  O        22.1517681184       12.9608837092        8.3157087815
  O        16.5855732513       15.5694396030        2.4259777000
  O        11.5788589454       12.3175781509        5.7248063636
  O        28.1449159794       13.9139843279        3.8828943112
  O        23.0030829294       10.6631064969        7.2869577714
  P        15.7407384482       16.8128516915        2.1485551714
  P        10.7002734222       13.5660831061        5.5229372807
  P        27.1995601458       15.2037481092        3.8184205280
  P        22.1389398888       11.9383263188        7.2035331944
 Ca         9.0619088632       13.3490440021        2.8008245542
 Ca         5.7273423976       21.6499158651        6.1784869211
 Ca        20.4956397846       11.7224974366        4.4457807506
 Ca        17.4304270785       20.1273888496        7.7224534167
  O        11.2161072805       22.4012861918        0.8243032609
  O         6.2327848094       19.0837988074        4.0794426753
  O        22.6928807522       20.7161697854        2.4269980892
  O        17.6189878165       17.4299381621        5.7560148691
  O         8.4294898327        0.1050789543        3.0674129176
  O         7.2296631944       19.9037918556        6.3474758673
  O        23.7103982275       21.4616639687        4.6533622861
  O        18.4829851761       18.2818660925        7.9543959406
  P        12.2330207369       21.9855337597        1.8643910435
  P         7.1790407483       18.7385387910        5.2916917251
  P        23.6499802371       20.3645781422        3.5356696336
  P        18.6129736449       17.0947383178        6.9461753763
 Ca        14.2793761023       19.6959195280        2.4445617001
 Ca         9.1041425195       16.4539589810        5.8609563514
 Ca        25.4726568310       18.1080741561        4.1898438418
 Ca        20.6394799398       14.8649836577        7.6158982008
 Ca        15.4799661978       13.6230114382        1.6638251313
 Ca        12.1700905346       21.8507602550        5.0368664116
 Ca        26.5508577870       12.0766022543        3.7007778174
 Ca        23.4485202487       20.2349874316        6.8560709907
 Ca         6.4011498839       20.8220556672        2.5135217634
 Ca        17.8348416356       19.1530816784        3.9726253456
 Ca        12.6861559090       15.8439665032        7.1096782279
 Ca        29.1533634134       17.7190127646        5.7993495338
 Ca         3.7325159842       19.2034719014        4.2197511537
 Ca        20.3626998438       20.8394049076        2.3504980563
 Ca        15.3701478268       17.4989579791        5.5193664204
 Ca        26.4574855360       15.9676931353        7.6696590408
 Ca        12.8258672118       11.8376276293        3.4508557954
 Ca         9.4560624915       20.2575021133        6.6848416002
 Ca        29.2316334197       13.7082563350        2.0988411398
 Ca        25.9753910650       21.9233290003        5.2596961549
  O         5.7529063358       14.6467558789        4.7315199294
  O        28.4569123350       10.6612341312        8.6617263790
  O        22.1988536056       16.2287094095        3.1522811728
  O        17.0040386368       12.7929140674        6.7624739511
  H         7.1044006132       14.4669503542        4.9803238421
  H        29.4192247523       11.0262860701        8.4783053536
  H        23.7674489188       16.2594336881        3.1494411924
  H        18.2385156442       12.8765912367        6.6097258653
  O         8.6098609420       16.3236853262        2.9939623120
  O         3.0083625622       12.6947377298        6.7494697168
  O        19.8661351248       14.4568013313        4.9598461686
  O        14.4873970222       10.6594305126        8.6856820279
  H         9.6665965581       16.2390545539        3.1638816954
  H         4.5619563615       12.7844283207        6.7017587764
  H        20.8308561254       14.5043301248        4.8530011603
  H        15.3962375253       11.0487462012        8.4158004770
  O         8.3537880716       15.0299530257        4.3624423604
  O         3.3100039505       11.7234106597        7.6790631581
  O        24.9198723897       17.2671567876        2.2012921507
  O        19.5828135983       13.3328376082        6.0244536964
  H         6.7890639204       15.0787496076        4.2789098085
  H         1.6447891569       11.7070079040        7.7430010512
  H        23.9313709924       16.9275606236        2.3737774455
  H        18.4963809944       13.3254975471        6.0394610862
  O        10.9523456431       17.3448612095        2.1441857574
  O         5.4064326316       13.2710058677        6.1411615020
  O        22.1453889212       15.2586629093        4.1110261124
  O        17.1447316653       11.7567633818        7.6195684882
  H        10.0112875265       16.9639961070        2.3628735458
  H         4.5291526681       13.4147360025        5.9868528197
  H        21.0836134547       15.0935410498        4.3335202894
  H        15.9502334981       11.7569135849        7.7533782191
  O        16.1641534513       10.1247272342       15.5262600084
  C        15.5603775990       11.1852289239       15.5642041541
  O        14.9007515834       12.3106595248       15.6029289932
     387
 i =       10, E =     -6918.5894244444
  O        16.2717684062       10.0881098355        0.7991322240
  O        11.1181380743        6.7763411941        4.1225276654
  O        27.6944975421        8.3013214181        2.3196689164
  O        22.5172498338        5.0884511999        5.6365936386
  O         2.7873129617        5.1000072809        3.7551222326
  O        19.3353639267        6.6844669367        2.1696725500
  O        14.1897809469        3.4603928577        5.4790449881
  O        25.7600232547        1.7603537205        7.0642575154
  O         7.0874257976       12.1854862819        3.3167350916
  O         2.1282213559        8.8128752963        6.4793450815
  O        21.7159259290        2.3228976578        1.5956321264
  O        18.5561656659       10.5445348105        4.9218263488
  O        17.3740747348        2.5952785332        2.3250454638
  O        14.1264467624       10.8735443121        5.5742514021
  O         2.7692581689       12.4653199236        3.8169678149
  O        25.6205093419        9.1862212655        7.1141944979
  O        14.1820742985        6.0605129355        0.8982480260
  O         9.1390322742        2.7175451822        4.1315859765
  O        25.8822891029        4.2751106881        2.4327884586
  O        20.5626452741        1.1100002819        5.8011855543
  O        11.8191164893       10.3373295667        1.5247626302
  O         6.7572442066        7.1107150936        4.8108596540
  O        23.2407334398        8.7063192639        3.0750027754
  O        18.1397015831        5.4219089772        6.3763023933
  O        15.5525572025        1.4689635577        3.5471625778
  O        12.2545048561        9.7253394889        6.8048804754
  O        28.8989311957       11.2787293071        5.0981994983
  O        23.7418681940        7.9726417131        8.4247800986
  O        12.3566216292        4.7713416556        2.1209619128
  O         7.3619629218        1.4585158044        5.4728900878
  O        23.9243657508        3.0927710633        3.6827298670
  O        22.5450281855       22.9216679300        6.9987238532
  O         9.9625643448        9.1677839138        2.6811294089
  O         4.9599498254        5.8488874217        5.9076945963
  O        21.4493567979        7.5399080613        4.2989168147
  O        16.3966094381        4.2128587493        7.5740044325
  O        14.3578413149        8.8886782998        2.0924592219
  O         9.2919316212        5.5960843553        5.3646774915
  O        25.8698722578        7.1873747832        3.5380491475
  O        20.7260577885        3.9523834407        6.8972597338
  O         1.0330989988        3.8278227873        5.0751710052
  O        17.5437023206        5.4456197116        3.4191175734
  O        12.2642190371        2.2634441840        6.7697298100
  O        23.8742454512        0.5146707047        8.3107398881
  O         5.2618316641       10.9430890084        4.4098870941
  O        28.2072700580        7.6569369194        7.6557628729
  O        19.9703298608        1.1137284684        2.8071307252
  O        16.7583840069        9.3449676751        6.1024075139
  O        14.5297715768       11.4382064738        2.1130407603
  O         9.4046706127        8.1207414583        5.4538172830
  O        25.9886768163        9.7526013498        3.5734502371
  O        20.8745236724        6.4812323012        6.9864992489
  O        16.1987572991        9.9174636171        3.2777100632
  O        11.1487791493        6.5948632897        6.6703109905
  O        27.6817991997        8.3291137906        4.8667067453
  O        22.6248384235        5.0491910477        8.1982163341
  P        15.3225518640       10.0660652285        1.9669824500
  P        10.2836803316        6.8109651940        5.4081830252
  P        26.7995561635        8.4534302167        3.5890397628
  P        21.6633719471        5.1876964180        6.9681519829
 Ca        10.6092028497        4.6304584955        3.3335452000
 Ca         5.6286805009        1.0480766517        6.6723448146
 Ca        26.9052040788        6.1465153269        1.9476933437
 Ca        22.1283771280        2.5832792467        5.1482847312
  O         1.2235912351        3.5100013053        2.5059590312
  O        17.8713465533        5.0817340894        0.8947392648
  O        12.5308382204        1.9365560927        4.1938598958
  O        24.1624225899        0.2716404165        5.7905056794
  O        28.4339759463        5.7390482646        3.4712656016
  O        16.9892504478        7.3790247335        1.9419763600
  O        11.8599345055        4.1603857232        5.2875747445
  O        23.4353085099        2.4926323768        6.7823421633
  P         1.3562626897        4.4956404998        3.6931172674
  P        17.8996775345        6.1214164294        2.0309382414
  P        12.7950369298        2.8783975652        5.4266971420
  P        24.2778606656        1.2029727855        7.0843985744
 Ca         8.2883829574        7.8294119149        2.9755341483
 Ca         2.9961387534        4.7379208315        6.3153728471
 Ca        24.3945340433        9.5288364656        1.5903609827
 Ca        19.5289367230        6.3411048488        4.7591012555
  O         7.7120834511       10.4784643542        5.1424642725
  O         2.7596432437        7.1250919859        8.3437840289
  O        22.4000122423        0.6131631906        3.4262759679
  O        19.2298820732        8.8584719631        6.7578183257
  O         6.7362537600        9.6493135731        2.8873204762
  O         1.7278480780        6.4334158587        6.1211304106
  O        25.3473507707       22.8167225237        1.2336872928
  O        18.2060980329        8.1284524681        4.5206616694
  P         6.7991400208       10.8254155156        3.9150963583
  P         1.7375071771        7.5360165260        7.3306585564
  P        21.3907470568        0.9851146229        2.2407348547
  P        18.2585844387        9.2106268579        5.6581272791
 Ca         2.9247660320        1.6202286810        3.4004704679
 Ca        19.3784990588        3.1976913496        1.5715720243
 Ca        14.4839230705       -0.1457297624        4.8401193562
 Ca        27.6242587167        9.8674327766        6.8348034110
  O        17.2320780786        0.0703814094        2.2582292960
  O        14.0175366316        8.3084756905        5.6034130018
  O         2.6509815646        9.9320093766        3.7621746163
  O        25.4792694603        6.6170892081        7.0759778755
  O        15.4903981940        1.5044889501        1.0010709769
  O        12.3333042697        9.7254364884        4.2899879611
  O        28.8501886329       11.4636467585        2.5559744628
  O        23.8089047508        8.1050477368        5.9038123836
  P        16.4345759761        1.3684048916        2.2361373993
  P        13.2066482378        9.6117536862        5.5902378253
  P        29.7167060450       11.2354755152        3.8145757564
  P        24.6657703276        7.9969832619        7.2306675560
 Ca         4.5560232903        5.4982179536        2.5856450413
 Ca        15.9655919623        3.9613086725        4.0308577691
 Ca        11.2194394270        0.3082248864        7.3937565070
 Ca        27.3248072619        2.0961803805        5.6765164151
  O        13.9346318599        6.2658648419        3.4150374908
  O         8.9348770611        3.0623183815        6.7081686242
  O        25.5879403033        4.6029283649        4.9990074799
  O        20.2343142833        1.4728714991        8.3159356964
  O        14.6582839027        4.0495715561        2.4037242288
  O         9.6842123764        0.8038209086        5.7269436252
  O        26.2327530534        2.3908544895        3.8565532527
  O        24.8938185977       22.1814193497        7.2902410198
  P        13.8172451654        5.3286475957        2.1248862517
  P         8.8045955580        2.0614567125        5.4919991235
  P        25.2963067527        3.6744597026        3.7482503913
  P        20.2105159757        0.4360738027        7.1888323266
 Ca         7.1669182281        1.8210829990        2.8081326226
 Ca         3.8005697853       10.1312718910        6.1675926182
 Ca        18.5988735141        0.1841825104        4.4174349235
 Ca        15.5445969059        8.6169340793        7.7031823985
  O         9.3151427078       10.8869743346        0.8371685148
  O         4.3383755423        7.5728501197        4.0874056337
  O        20.7857163620        9.2035200148        2.4244615255
  O        15.7150834796        5.9203644240        5.7575833161
  O        10.3378999789       11.5898659252        3.0578833222
  O         5.3363082721        8.3881994802        6.3471700477
  O        21.8219796221        9.9401799151        4.6541798102
  O        16.5672832467        6.7638575522        7.9504552731
  P        10.3050932515       10.4990642530        1.8671349000
  P         5.2960415993        7.2392515421        5.2973929836
  P        21.7347941831        8.8505785933        3.5356166087
  P        16.7092860621        5.5799938945        6.9547816323
 Ca        12.3933494909        8.1792996715        2.4246380969
 Ca         7.2079119550        4.9251236747        5.8285751238
 Ca        23.5560042083        6.6153383229        4.1980402443
 Ca        18.7579509565        3.3783857848        7.6481075488
 Ca        13.6097253928        2.1010860444        1.6300923814
 Ca        10.2914787241       10.3263410951        5.0181453575
 Ca        24.6336686453        0.5751581454        3.7221678105
 Ca        21.5424865012        8.7154352425        6.8717403379
 Ca         4.5107732664        9.3126669191        2.5437906896
 Ca        15.9391805559        7.6434352604        3.9577186985
 Ca        10.7823698918        4.3135803984        7.0705778172
 Ca        27.2354319857        6.2441503533        5.8182670987
 Ca         1.8192965084        7.7031599390        4.2468207072
 Ca        18.4635819550        9.3366758205        2.3338154744
 Ca        13.4822682195        5.9757423233        5.5004275889
 Ca        24.5328194817        4.4769622348        7.7735162261
 Ca        10.9201806340        0.3056797395        3.4413399281
 Ca         7.5463177594        8.7396465470        6.6472310959
 Ca        27.3366763608        2.2077294773        2.1295516624
 Ca        24.0671045958       10.4116320449        5.2841846870
  O         3.8968129614        3.2452628223        4.5827853885
  O        30.3709039850       22.2062120561        8.6557960698
  O        20.2887762344        4.7477065977        3.1257697972
  O        15.1266431535        1.2974311612        6.8119239102
  H         5.2703769111        2.9777736225        4.9865471343
  H        31.3337973695       22.4467857072        8.5989190888
  H        21.9136310511        4.7716093321        3.1323484644
  H        16.2236625892        1.3729030315        6.6351489961
  O         6.7461102321        4.8663345849        2.8905837953
  O         1.0779738863        1.1789048118        6.7722032569
  O        17.9808416603        2.9486648885        4.9627702215
  O        16.3817191193       22.1476994143        8.6853296635
  H         7.7264869515        4.7187070558        3.1715046854
  H         2.7446151687        1.2699297487        6.7301403710
  H        18.9140220182        2.9670240335        4.8678018871
  H        17.2657191605       22.5011530458        8.4938415803
  O         6.4326315485        3.4463510756        4.4526285785
  O         1.5026895273        0.1979516086        7.7255209360
  O        23.0186664322        5.7376677896        2.2161813450
  O        17.6754945846        1.7876588513        6.0458400579
  H         4.7850668537        3.5382788421        4.2882463500
  H        -0.3424737738        0.1764175991        7.7697124540
  H        22.0509691105        5.5053604840        2.2487042709
  H        16.6632487470        1.8104681040        6.0206756235
  O         9.0728275555        5.8609567726        2.1544804345
  O         3.5150230689        1.6393419008        6.3023654741
  O        20.2012584512        3.7659130358        4.0872208512
  O        15.1995364516        0.2290162101        7.6395280290
  H         8.1419887606        5.5383569894        2.2363748578
  H         2.5459436567        1.9359910389        5.9476135519
  H        19.2567484824        3.6073549936        4.3196119837
  H        14.1296988986        0.2197402548        7.7877060289
  O        18.1727090219       21.5989125983        0.7982143620
  O        13.0205072482       18.2896443432        4.1226364157
  O        29.5964181659       19.8127945750        2.3197449002
  O        24.4240891304       16.5975742642        5.6416287556
  O         4.6885684371       16.6124531266        3.7537699245
  O        21.2364697655       18.1940841665        2.1705649672
  O        16.0914091787       14.9722407626        5.4793244330
  O        27.6602407475       13.2783326893        7.0635163079
  O         5.1913071449        0.6816198502        3.3136327954
  O         4.0302299663       20.3239793157        6.4798777160
  O        23.6179281985       13.8340126421        1.5960125877
  O        20.4579454646       22.0563271349        4.9219259579
  O        19.2781881418       14.1044850023        2.3264568926
  O        16.0282300966       22.3852408734        5.5748055167
  O         0.8688968771        0.9542207530        3.8181381901
  O        27.5221806389       20.6956984106        7.1157675413
  O        16.0857899807       17.5749857541        0.8989564414
  O        11.0433676694       14.2299123849        4.1372347599
  O        27.7839700882       15.7854007914        2.4347631388
  O        22.4640850694       12.6219512111        5.8006721145
  O        13.7134897132       21.8529115599        1.5267492451
  O         8.6593228354       18.6215764567        4.8112788958
  O        25.1430017302       20.2174023789        3.0747134561
  O        20.0420337576       16.9350160963        6.3770279151
  O        17.4555540541       12.9801148166        3.5482287856
  O        14.1563128144       21.2371691220        6.8045768890
  O        30.8001852982       22.7894898118        5.0980999163
  O        25.6440979167       19.4835699205        8.4254532520
  O        14.2592378542       16.2856207242        2.1189793909
  O         9.2654364506       12.9703382744        5.4821557400
  O        25.8259157565       14.6043628714        3.6835745419
  O        20.6443056079       11.4106940379        6.9999741997
  O        11.8640856953       20.6847933621        2.6798053123
  O         6.8617742783       17.3604958960        5.9076891099
  O        23.3514437261       19.0503200118        4.3009313831
  O        18.2992347874       15.7242533090        7.5739321873
  O        16.2590900644       20.4004592844        2.0944809813
  O        11.1938621261       17.1082969020        5.3649460727
  O        27.7719565058       18.6985078823        3.5381406141
  O        22.6277267693       15.4641324718        6.8969368935
  O         2.9342334455       15.3392315209        5.0750051272
  O        19.4449663561       16.9580706484        3.4214182956
  O        14.1654905637       13.7745480736        6.7696932918
  O        25.7739828492       12.0272098112        8.3095541369
  O         7.1745683362       22.4563589820        4.4079221019
  O        30.1090384584       19.1687339139        7.6553738843
  O        21.8721400620       12.6245287054        2.8066367815
  O        18.6604883585       20.8558460920        6.1017208478
  O        16.4316386153       22.9510625466        2.1147898932
  O        11.3066024352       19.6329871313        5.4540854506
  O        27.8908089096       21.2641293709        3.5738173870
  O        22.7767347886       17.9924931761        6.9858626906
  O        18.1018058762       21.4287927536        3.2762635779
  O        13.0513440643       18.1063687293        6.6697953518
  O        29.5835189677       19.8406422062        4.8669480664
  O        24.5273805919       16.5604410546        8.1988299932
  P        17.2228168059       21.5785582692        1.9666507843
  P        12.1852112768       18.3234569461        5.4088230418
  P        28.7010499682       19.9652197693        3.5891092142
  P        23.5665607554       16.6987724634        6.9703708282
 Ca        12.5196287663       16.1504992337        3.3353002340
 Ca         7.5258485758       12.5561131280        6.6878915696
 Ca        28.8068928455       17.6583720719        1.9480205387
 Ca        24.0319310600       14.0992314897        5.1514871049
  O         3.1250418972       15.0212048263        2.5057177743
  O        19.7712169924       16.5962521690        0.8920484950
  O        14.4324288915       13.4479039654        4.1941491890
  O        26.0645737428       11.7845273466        5.7913943464
  O        30.3354455558       17.2504474779        3.4715454722
  O        18.8956669632       18.8946784816        1.9431668265
  O        13.7621373168       15.6719903572        5.2883542832
  O        25.3366682703       14.0046438104        6.7827865778
  P         3.2586375562       16.0081431368        3.6934993826
  P        19.8003602903       17.6324421371        2.0295738398
  P        14.6966909533       14.3900815279        5.4271107823
  P        26.1807377030       12.7162210071        7.0853786327
 Ca        10.1899963273       19.3408846170        2.9753452416
 Ca         4.8975825053       16.2507552557        6.3169350104
 Ca        26.2954160542       21.0404979099        1.5903862343
 Ca        21.4309674918       17.8535010816        4.7589043520
  O         9.6161926812       21.9921588197        5.1414244421
  O         4.6606620547       18.6351437484        8.3440515592
  O        24.3016734962       12.1238702780        3.4260116370
  O        21.1306065671       20.3699221528        6.7585766991
  O         8.6387003600       21.1653327376        2.8894159859
  O         3.6292940551       17.9454690590        6.1209103504
  O        23.4456894687       11.3053902449        1.2334382542
  O        20.1083683404       19.6405494157        4.5202431189
  P         8.6962029825       22.3352195301        3.9148270131
  P         3.6394143209       19.0471985219        7.3306126190
  P        23.2935815700       12.4963319255        2.2412641279
  P        20.1609164568       20.7219849799        5.6581502240
 Ca         4.8144213351       13.1337943543        3.4055043837
 Ca        21.2787573343       14.7093615257        1.5728174100
 Ca        16.3864582996       11.3651348908        4.8386029657
 Ca        29.5249404016       21.3789325137        6.8341407449
  O        19.1338238227       11.5806286794        2.2576983526
  O        15.9194803695       19.8197580063        5.6033431103
  O         4.5528226799       21.4429366397        3.7627683559
  O        27.3807564209       18.1277721574        7.0761081715
  O        17.3931325271       13.0159220541        1.0018854334
  O        14.2343720929       21.2376896886        4.2896122533
  O        30.7519961220       22.9753109972        2.5558692739
  O        25.7115913795       19.6152036489        5.9037577007
  P        18.3361934206       12.8796010651        2.2369742393
  P        15.1079602987       21.1238981754        5.5902247647
  P        31.6192141961       22.7473106535        3.8141310098
  P        26.5672224335       19.5067412764        7.2287831095
 Ca         6.4560045444       17.0231459404        2.5840319193
 Ca        17.8673911017       15.4719402784        4.0284378650
 Ca        13.1214371143       11.8199983977        7.3936545002
 Ca        29.2231194712       13.6118644954        5.6802897121
  O        15.8370019144       17.7781801603        3.4143846102
  O        10.8376607476       14.5768321987        6.7119427742
  O        27.4887275034       16.1130195286        4.9995326312
  O        22.1338138203       12.9830023736        8.3158346688
  O        16.5577599482       15.5603566358        2.4042311568
  O        11.5883081190       12.3131915058        5.7284527784
  O        28.1344770660       13.9021273970        3.8578791003
  O        22.9908991717       10.6682511385        7.2881481930
  P        15.7194816277       16.8389883884        2.1256694648
  P        10.7054460072       13.5725191653        5.4905335046
  P        27.1981855180       15.1876934026        3.7515665385
  P        22.1127096481       11.9475293700        7.1887169414
 Ca         9.0703141636       13.3268576404        2.8023428451
 Ca         5.7033931578       21.6404560702        6.1649748436
 Ca        20.4988046514       11.6959569563        4.4159987214
 Ca        17.4454839295       20.1282628539        7.7033629746
  O        11.2123461238       22.4057333177        0.8384925920
  O         6.2404044923       19.0843325998        4.0878268316
  O        22.6872377209       20.7160176152        2.4250474848
  O        17.6170364003       17.4318637277        5.7579111130
  O         8.4345385594        0.0833092274        3.0599951256
  O         7.2388391947       19.8992555055        6.3473184255
  O        23.7242801819       21.4517829240        4.6549075827
  O        18.4681025886       18.2750277080        7.9505939532
  P        12.2120643576       22.0111697950        1.8710338282
  P         7.1978458461       18.7507660008        5.2977478287
  P        23.6344874413       20.3618958705        3.5348171702
  P        18.6102215661       17.0914925848        6.9549861248
 Ca        14.2938830837       19.6912613284        2.4242846527
 Ca         9.1095505511       16.4465048098        5.8380037881
 Ca        25.4578096983       18.1259351697        4.2019986560
 Ca        20.6593507030       14.8905588456        7.6452693120
 Ca        15.5109536229       13.6125554632        1.6244630830
 Ca        12.1887528964       21.8472346330        5.0110591841
 Ca        26.5359145566       12.0866498917        3.7222563708
 Ca        23.4438826885       20.2268848992        6.8695838387
 Ca         6.4120925774       20.8253877802        2.5429608610
 Ca        17.8417316286       19.1525317198        3.9580174848
 Ca        12.6841545080       15.8251991821        7.0708243396
 Ca        29.1368968449       17.7556873972        5.8188132192
 Ca         3.7208133405       19.2151029734        4.2467314020
 Ca        20.3665740803       20.8463181491        2.3337704580
 Ca        15.3839581903       17.4866923470        5.5005408159
 Ca        26.4300601046       15.9838936012        7.7553058881
 Ca        12.8348333656       11.8121841241        3.4456073777
 Ca         9.4482942859       20.2515258029        6.6473544348
 Ca        29.2375371474       13.7202726853        2.1302588332
 Ca        25.9678920911       21.9221933529        5.2838387289
  O         5.7947882068       14.7571684455        4.5844530129
  O        28.4649987040       10.6839974479        8.6581655443
  O        22.1921554928       16.2574294977        3.1235534359
  O        17.0285346061       12.8085701245        6.8096017248
  H         7.1728400168       14.4837238968        4.9836246846
  H        29.4216851315       10.9428185327        8.6031618705
  H        23.8158207157       16.2823636674        3.1315681415
  H        18.1247891287       12.8806146490        6.6318572524
  O         8.6453449508       16.3811589784        2.8928500926
  O         2.9784219563       12.6893975956        6.7692228132
  O        19.8873164499       14.4602710553        4.9736067555
  O        14.4784858098       10.6340602790        8.6869099303
  H         9.6273677382       16.2322005507        3.1703991040
  H         4.6493516313       12.7799290021        6.7277166430
  H        20.8169510975       14.4755581055        4.8645456547
  H        15.3597223257       10.9944147956        8.4955011353
  O         8.3305919007       14.9595045669        4.4534385372
  O         3.3989063947       11.7122686827        7.7253050143
  O        24.9212620941       17.2480549562        2.2166295079
  O        19.5773154130       13.3011608901        6.0480017958
  H         6.6890715913       15.0525902605        4.2936031608
  H         1.5805650532       11.6806485439        7.7614192195
  H        23.9529245577       17.0170448906        2.2498548236
  H        18.5669635916       13.3237842447        6.0218737181
  O        10.9737622089       17.3724987574        2.1542227574
  O         5.4168866851       13.1483284925        6.2992456831
  O        22.1011962701       15.2791671188        4.0880208347
  O        17.1013897278       11.7435815601        7.6464424282
  H        10.0432779898       17.0507868030        2.2382899787
  H         4.4493120646       13.4498882612        5.9464000743
  H        21.1510377405       15.1218940706        4.3204020960
  H        16.0360349886       11.7280428443        7.7840433974
  O        16.1646878094       10.1266258526       15.5261172030
  C        15.5232693465       11.2459485368       15.5669994616
  O        14.9413550635       12.2455585301       15.6025915104
