     387
 i =        1, E =     -6911.1391543912
  O         8.8501261306        6.3139158068        0.8797087322
  O         8.8619911715        2.2475924357        6.4271641632
  O         0.7039245189       10.1105068225        3.6509284971
  O         0.6971834538        6.0540809485        9.1912858895
  O        13.5395762378        7.1866026860        1.5137958887
  O        13.5289519968        3.1223891651        7.0687001475
  O         5.3693039111       10.9886215846        4.2834121122
  O         5.3709071348        6.9484721639        9.8360208072
  O         2.0914180641        6.2037822609        0.8044908497
  O         2.0963730401        2.1433833431        6.3500279085
  O        10.2512113538       10.0212603369        3.5688923399
  O        10.2602852382        5.9571571872        9.1223419612
  O        15.6367131708        3.5306141132        3.1024954657
  O         7.4585820333        7.3313251000        5.8762884399
  O         7.4654904747        3.2692668647       11.4112560846
  O        15.6218269288       11.1363535311        8.6504972153
  O        10.9491444135        2.6325774934        2.4666522358
  O         2.7923663328        6.4572457482        5.2340393893
  O         2.7837651832        2.3962026291       10.7694270587
  O        10.9564951794       10.2610396033        8.0181270034
  O         6.0559204373        3.6180148567        3.1825112891
  O        14.2281300024        7.4358255227        5.9531538698
  O        14.2354485340        3.3863086951       11.4956615962
  O         6.0696138986       11.2375746691        8.7248696575
  O        15.6260795480        2.0564883029        5.1189786602
  O         7.4601441975        5.8628242614        7.8842276780
  O         7.4696235561        1.7971304329       13.4327336520
  O        15.6200905407        9.6705530854       10.6586852920
  O        10.9525408800        1.1615683523        4.4761083691
  O         2.7941035839        4.9900980565        7.2434504162
  O         2.7816911072        0.9261275037       12.7947723849
  O        10.9560611092        8.7937346047       10.0251533392
  O         6.0608171167        2.1540917973        5.1918155366
  O        14.2264282247        5.9695022383        7.9610746802
  O        14.2326564590        1.9091545235       13.5040623805
  O         6.0685971641        9.7619916520       10.7399821222
  O         8.8558534003        4.8415324070        2.8978861562
  O         8.8634096180        0.7816216958        8.4345058534
  O         0.7017030061        8.6428029086        5.6634219599
  O         0.6869658708        4.5813329284       11.2097356914
  O        13.5371083363        5.7144218632        3.5445754074
  O        13.5291159220        1.6555083340        9.0764196350
  O         5.3662757189        9.5207098546        6.2913944322
  O         5.3755734204        5.4793266284       11.8424023057
  O         2.0891675968        4.7249672993        2.8160501565
  O         2.0958195365        0.6769808341        8.3573495429
  O        10.2533558672        8.5433394797        5.5860430808
  O        10.2642115095        4.4955717025       11.1292298451
  O         6.8546928313        6.4035570806        2.4763256052
  O         6.8786713035        2.3294095291        8.0204570779
  O        15.0335279119       10.1919747786        5.2459290456
  O        15.0169322925        6.1365369587       10.8066174146
  O         9.1525964448        7.3153264477        3.1566670448
  O         9.1620164264        3.2483683442        8.6917025218
  O         1.0024861854       11.1121734703        5.9227709727
  O         0.9938730208        7.0520603434       11.4628108700
  P         8.4300066009        6.1978797180        2.3153760349
  P         8.3993930715        2.1640000220        7.9057627999
  P         0.2482530553       10.0208256953        5.1082134924
  P         0.2775832274        5.9855646874       10.7057619841
 Ca        10.2418588631        0.1551263959        6.4368973694
 Ca         2.0648876227        8.0088159679        3.6569495742
 Ca         2.0866131137        3.9639627196        9.2289307938
 Ca        10.2390943007        7.7607521504       11.9877688056
  O        13.6581360110        4.6619171343        1.2087758047
  O        13.6471809173        0.5944211108        6.7621857430
  O         5.4858106081        8.4620834578        3.9767163011
  O         5.4892220684        4.4020574313        9.5268045276
  O        11.5266564248        5.7910283676        2.0453644786
  O        11.5182134115        1.7335088648        7.5936400171
  O         3.3576049449        9.5984661283        4.8095244117
  O         3.3593288072        5.5460404578       10.3559486672
  P        13.0504186779        5.7968309351        2.0178434706
  P        13.0654541129        1.7518376787        7.5980016706
  P         4.9057242328        9.6071896255        4.8306077624
  P         4.8919172916        5.5391027887       10.4100417714
 Ca         6.1395327873        0.2338803859        6.4993559964
 Ca        14.2972503277        8.0783421304        3.7034677703
 Ca        14.2995186816        4.0373476909        9.2736936333
 Ca         6.1394472779        7.8335984114       12.0418337452
  O         3.9607670700        6.4665756995        2.5217462083
  O         3.9550777413        2.3904264761        8.0665125505
  O        12.1222366468       10.2627105775        5.2974534226
  O        12.1306271283        6.2102755067       10.8561777849
  O         3.7938165028        4.3791052247        1.0193246535
  O         3.8030994641        0.3303063710        6.5646376316
  O        11.9655744708        8.2076905463        3.8047211217
  O        11.9696765392        4.1402594601        9.3422465786
  P         3.0166432411        5.4529808363        1.7626206841
  P         3.0171768494        1.4167605057        7.3613311821
  P        11.1837944347        9.2465703661        4.5599476632
  P        11.1537370877        5.1965291949       10.1438620416
 Ca        16.2547988821        5.1954357158        1.6009575690
 Ca        16.2675576728        1.1298858383        7.1466992700
 Ca         8.1152067244        8.9757480980        4.3706612042
 Ca         8.1022414271        4.9211469768        9.9341813672
  O         1.3057755540        1.9745073790        3.5051648198
  O         9.4442152921        5.7821340646        6.2908232984
  O         9.4663680262        1.7078806395       11.8350550139
  O         1.2893767925        9.5877567924        9.0662480836
  O        15.3286687994        1.0577203031        2.8474783605
  O         7.1593912545        4.8639256464        5.6200599456
  O         7.1689589785        0.7963151856       11.1572832534
  O        15.3206379193        8.6661795984        8.3895319119
  P        16.0454513803        2.1265989901        3.6090344775
  P         7.9230119777        5.9466586939        6.4071618624
  P         7.8961571219        1.9144992569       11.9939415542
  P        16.0747676741        9.7554579629        9.2047000956
 Ca         6.0890652139        0.3569960337        2.3289535479
 Ca        14.2356602465        4.1476920908        5.0849189979
 Ca        14.2474232126        0.0985828768       10.6518829367
 Ca         6.0825314967        7.9562184974        7.8783152969
  O        10.8346909538        3.7089506239        4.7853741346
  O         2.6759047398        7.5168555289        7.5488117980
  O         2.6646164668        3.4492329969       13.1018961674
  O        10.8376578595       11.3186219815       10.3344080005
  O        12.9641134243        2.5648307759        3.9564761368
  O         4.8040250749        6.3782038208        6.7173411411
  O         4.7953015367        2.3209983790       12.2674555311
  O        12.9673551453       10.1829393925        9.5018184522
  P        11.4296795315        2.5728974161        3.9015839281
  P         3.2583156515        6.3593144972        6.7166225261
  P         3.2745574321        2.3179780707       12.2978865795
  P        11.4155101571       10.1685853051        9.4846093660
 Ca        10.1784474923        0.2863254085        2.2764060073
 Ca         2.0239752269        4.0721125871        5.0404390791
 Ca         2.0357931350        0.0274748360       10.6031566485
 Ca        10.1828202469        7.8777367028        7.8160174500
  O         4.1905455898        1.9010287610        3.4543476230
  O        12.3680340588        5.7222945077        6.2460176037
  O        12.3624880622        1.6461073675       11.7894608230
  O         4.1991002223        9.5176478656        9.0130976900
  O         4.3526606151        3.9708580651        4.9691376911
  O        12.5203828504        7.7810537832        7.7471438855
  O        12.5300959010        3.7311594364       13.2914567419
  O         4.3552378288       11.5725480221       10.5074316604
  P         5.1731374747        2.9164709881        4.1683259893
  P        13.3050428558        6.6945887230        6.9522365273
  P        13.3034918643        2.6591199548       12.5520302651
  P         5.1415310332       10.5284112917        9.7553063956
 Ca         8.2208519719        3.1822014947        4.3674690728
 Ca         0.0554182855        6.9804531478        7.1682393227
 Ca         0.0683527336        2.9273829537       12.7179522044
 Ca         8.2085048776       10.7974388562        9.9455687695
 Ca        13.6088480631        0.2641964114        4.3813224333
 Ca         5.4488611234        8.0894167905        1.6099684379
 Ca         5.4422611060        4.0499642814        7.1660310340
 Ca        13.6078355099        7.8557545596        9.9358917924
 Ca         2.7270319204        2.2917635051        1.6135780517
 Ca        10.8809233804        6.0794201456        4.3607400981
 Ca        10.8759374675        2.0304369473        9.9495556173
 Ca         2.7190948897        9.8847753473        7.1652091224
 Ca         2.7136552320        0.2556574682        4.3772716736
 Ca        10.8811212194        4.0611767497        7.1457913133
 Ca        10.8747286075        0.0209034429       12.7029629088
 Ca         2.7128857229        7.8484414364        9.9327154660
 Ca         5.4476110085        6.0806535100        4.3631259665
 Ca         5.4425265865        2.0310731309        9.9511064228
 Ca        13.6027170431        9.8942043130        7.1477758530
 Ca        13.5949927416        5.8199405847       12.7000799263
  O         8.1612968897       23.0331590000        5.2270000000
  O         0.0061330261        3.5040000000        8.0050000000
  O        -0.0027834238       22.5201319561       13.8232481273
  O         8.1557249544        7.3090000000       10.7830000000
  H         8.1606064563        0.0027581133        4.7115707129
  H        -0.0013541889        3.8633450005        7.4162713819
  H         0.0008280633       23.0772738133       13.0659910972
  H         8.1626924637        7.6729578466       10.1972475362
  O         0.0048561876        5.5310000000        5.2270000000
  O         0.0106933311        1.4760000000       10.7830000000
  O         8.1585054951        9.3370000000        8.0050000000
  O         8.1639623834        5.0273841379       13.8306311197
  H        -0.0004231216        5.8384564730        4.7131181631
  H        -0.0030025072        1.8344859558       10.1943631824
  H         8.1611896998        9.6986887659        7.4169544979
  H         8.1599622669        5.5732173675       13.0627713810
  O         8.1600139430        1.0604928525        3.2554363311
  O        -0.0053318854        4.6080000000        6.3070000000
  O        -0.0052348379        0.5520000000       11.8630000000
  O         8.1624151981        8.4140000000        9.0850000000
  H         8.1608635896        0.5129864346        4.0154727773
  H         0.0006842308        4.2512330747        6.8872637423
  H         0.0012498244        0.2185671031       12.4148803813
  H         8.1617818027        8.0509018867        9.6732770569
  O         0.0032931618        6.8988781463        3.2644660840
  O        -0.0050984690        2.5800000000        9.0850000000
  O         8.1616693611       10.4420000000        6.3070000000
  O         8.1655586435        6.3860000000       11.8630000000
  H        -0.0005253212        6.3484960588        4.0138920733
  H        -0.0016368207        2.2162044030        9.6725475961
  H         8.1610190396       10.0832424351        6.8892926745
  H         8.1599112628        6.0481963934       12.4124268014
  O         8.8502122848       17.9820582137        0.8795069442
  O         8.8620096587       13.9154662010        6.4271788118
  O         0.7039209080       21.7784783969        3.6509275525
  O         0.6971768640       17.7220505325        9.1912706499
  O        13.5395347167       18.8546434594        1.5138461461
  O        13.5290772494       14.7896976363        7.0685996405
  O         5.3691429399       22.6562885933        4.2835339687
  O         5.3710203011       18.6157951034        9.8359236041
  O         2.0913924485       17.8718863878        0.8045171426
  O         2.0963307077       13.8103219802        6.3499955232
  O        10.2511942738       21.6893328817        3.5689235712
  O        10.2602915186       17.6241322474        9.1223139034
  O        15.6367126687       15.1985810228        3.1025093980
  O         7.4585095418       18.9986229335        5.8761381080
  O         7.4655844193       14.9371698035       11.4111662719
  O        15.6217944142       22.8033442697        8.6504771129
  O        10.9491415317       14.2995947885        2.4666344932
  O         2.7923292586       18.1243101652        5.2340064555
  O         2.7837652476       14.0631607461       10.7693642171
  O        10.9565353507       21.9280712374        8.0181277208
  O         6.0558969054       15.2849976872        3.1824728993
  O        14.2281988915       19.1028313852        5.9530980305
  O        14.2354040625       15.0542703770       11.4957076137
  O         6.0696447966       22.9045662028        8.7248690738
  O        15.6260861433       13.7245137718        5.1189932727
  O         7.4602045186       17.5307960182        7.8842425875
  O         7.4695293493       13.4650901141       13.4329790795
  O        15.6200797717       21.3384628775       10.6586724242
  O        10.9526390007       12.8288899537        4.4760349675
  O         2.7941981825       16.6574554852        7.2433615809
  O         2.7817148461       12.5939747387       12.7947701711
  O        10.9562450204       20.4611080843       10.0250922747
  O         6.0608773874       13.8219158868        5.1919562028
  O        14.2264294592       17.6365558860        7.9610336524
  O        14.2326662756       13.5771701210       13.5041027938
  O         6.0686419861       21.4290243561       10.7399308739
  O         8.8557867912       16.5094989930        2.8979474107
  O         8.8634051330       12.4486312961        8.4344614898
  O         0.7016860355       20.3107658807        5.6634243101
  O         0.6868309711       16.2486878930       11.2095611756
  O        13.5371186270       17.3814271119        3.5445080343
  O        13.5291181939       13.3225115378        9.0763877957
  O         5.3662385530       21.1877055969        6.2913316351
  O         5.3755351501       17.1463317354       11.8423683792
  O         2.0892513481       16.3920006164        2.8158779113
  O         2.0958152769       12.3439294565        8.3573500953
  O        10.2532944624       20.2113559167        5.5860625006
  O        10.2642390922       16.1625670049       11.1292230458
  O         6.8545895133       18.0715599452        2.4762950966
  O         6.8787196384       13.9973356998        8.0204483364
  O        15.0335178674       21.8599422514        5.2459269878
  O        15.0169185844       17.8045472211       10.8066168613
  O         9.1525848398       18.9833155693        3.1566519354
  O         9.1620593075       14.9154571555        8.6917245868
  O         1.0025056063       22.7800819019        5.9227398714
  O         0.9939785260       18.7193161212       11.4629449973
  P         8.4300681972       17.8656795912        2.3157038861
  P         8.3993310562       13.8311682511        7.9057681208
  P         0.2482561363       21.6888549474        5.1082159840
  P         0.2776033095       17.6530503303       10.7058025018
 Ca        10.2420330301       11.8222554647        6.4369317152
 Ca         2.0648972541       19.6767626367        3.6569457571
 Ca         2.0867548917       15.6310133696        9.2288939822
 Ca        10.2390750116       19.4276307496       11.9876014255
  O        13.6581381810       16.3299897100        1.2087528164
  O        13.6472106183       12.2624152248        6.7621496044
  O         5.4857965519       20.1290919004        3.9767080990
  O         5.4892082420       16.0700503560        9.5267735072
  O        11.5266130202       17.4580104131        2.0452966249
  O        11.5181936894       13.4015263598        7.5936234258
  O         3.3575701026       21.2654306841        4.8095166417
  O         3.3592618693       17.2140795712       10.3559494254
  P        13.0504504159       17.4646775150        2.0178745460
  P        13.0653378405       13.4194850896        7.5981263727
  P         4.9058994135       21.2745111995        4.8305823935
  P         4.8918774297       17.2067402230       10.4102106640
 Ca         6.1396274698       11.9010076408        6.4994052782
 Ca        14.2972606604       19.7463274712        3.7034742731
 Ca        14.2995299236       15.7052578770        9.2736685003
 Ca         6.1394082858       19.5015002404       12.0418291549
  O         3.9608724559       18.1337105064        2.5218584227
  O         3.9548950034       14.0582341290        8.0664003416
  O        12.1223934831       21.9298461558        5.2975358047
  O        12.1306459358       17.8772277811       10.8561477377
  O         3.7938080077       16.0470840205        1.0192878119
  O         3.8030941627       11.9973573119        6.5646523332
  O        11.9655873971       19.8756590456        3.8046689158
  O        11.9696976236       15.8073253928        9.3422499458
  P         3.0164670057       17.1206893721        1.7626646588
  P         3.0173604398       13.0839658939        7.3614338314
  P        11.1836705827       20.9144245733        4.5598870930
  P        11.1537376804       16.8635245839       10.1439190976
 Ca        16.2548111214       16.8633852561        1.6009406242
 Ca        16.2676002139       12.7976781422        7.1465632883
 Ca         8.1152336236       20.6427002524        4.3705755096
 Ca         8.1021319961       16.5889781583        9.9342202281
  O         1.3057398971       13.6425300970        3.5051716749
  O         9.4442696487       17.4501938057        6.2908456134
  O         9.4664041383       13.3758828049       11.8351320407
  O         1.2894056430       21.2557102181        9.0662382250
  O        15.3288027988       12.7250144121        2.8476112154
  O         7.1595017772       16.5312269147        5.6202414756
  O         7.1689464097       12.4642406302       11.1573965280
  O        15.3206625112       20.3332221236        8.3895590513
  P        16.0453874735       13.7943685909        3.6088869706
  P         7.9229263199       17.6141271320        6.4071232952
  P         7.8961377758       13.5826743696       11.9935179309
  P        16.0747476443       21.4226399131        9.2047191460
 Ca         6.0890924002       12.0240297945        2.3289409657
 Ca        14.2356180550       15.8147186326        5.0849770399
 Ca        14.2473949362       11.7665451119       10.6518569318
 Ca         6.0829204682       19.6234055925        7.8784632124
  O        10.8347097719       15.3769082405        4.7853627460
  O         2.6758735365       19.1848689297        7.5487904683
  O         2.6645578014       15.1164082211       13.1019808024
  O        10.8376497829       22.9866174119       10.3344275996
  O        12.9641172084       14.2328127912        3.9564862034
  O         4.8039345283       18.0462052857        6.7173043182
  O         4.7953086901       13.9879737879       12.2675131688
  O        12.9673679626       21.8509595183        9.5018445743
  P        11.4296215951       14.2405725513        3.9017035705
  P         3.2583239268       18.0268997664        6.7167481540
  P         3.2745722737       13.9858173012       12.2978340989
  P        11.4153635188       21.8361459165        9.4846337491
 Ca        10.1784394469       11.9543136824        2.2764410773
 Ca         2.0240045217       15.7400929071        5.0405249514
 Ca         2.0358695180       11.6954488995       10.6031905113
 Ca        10.1829771295       19.5447869543        7.8161008054
  O         4.1905293404       13.5679905649        3.4543562871
  O        12.3680575484       17.3893152119        6.2460166342
  O        12.3626822049       13.3132819902       11.7895963975
  O         4.1989596485       21.1855422994        9.0130287638
  O         4.3527453016       15.6385947253        4.9689828202
  O        12.5203770983       19.4481005504        7.7471324048
  O        12.5300868770       15.3990916916       13.2914688840
  O         4.3552137721       23.2396256979       10.5074982914
  P         5.1730119581       14.5838189175        4.1683556822
  P        13.3050303261       18.3615166665        6.9522900678
  P        13.3033467958       14.3269753555       12.5518527961
  P         5.1416482822       22.1954898610        9.7553142025
 Ca         8.2208526275       14.8502750149        4.3674064282
 Ca         0.0554139142       18.6484613755        7.1683137095
 Ca         0.0683472132       14.5944771379       12.7179296655
 Ca         8.2086269100       22.4654866953        9.9455718302
 Ca        13.6088258732       11.9312204435        4.3813109971
 Ca         5.4489017067       19.7573712843        1.6099636058
 Ca         5.4422695694       15.7179471579        7.1660416993
 Ca        13.6077935711       19.5237050865        9.9359350087
 Ca         2.7270317522       13.9597994932        1.6135893081
 Ca        10.8808735040       17.7473843655        4.3607529835
 Ca        10.8758998596       13.6974437332        9.9495322750
 Ca         2.7191234226       21.5527689607        7.1652030701
 Ca         2.7136146565       11.9236435506        4.3772920828
 Ca        10.8810593330       15.7291088594        7.1458072704
 Ca        10.8746994313       11.6888501838       12.7028785231
 Ca         2.7129100787       19.5163824847        9.9327280504
 Ca         5.4476500382       17.7476411725        4.3631032946
 Ca         5.4425743505       13.6990702747        9.9510739969
 Ca        13.6027003873       21.5612384286        7.1477660220
 Ca        13.5949941849       17.4879678067       12.7000678145
  O         8.1602419187       11.3650000000        5.2270000000
  O         0.0062455673       15.1710000000        8.0050000000
  O        -0.0027737381       10.8522307023       13.8230244129
  O         8.1533532299       18.9769990000       10.7830000000
  H         8.1607450149       11.6713992925        4.7118428750
  H        -0.0014409353       15.5325938900        7.4161502565
  H         0.0008447223       11.4099345927       13.0662951167
  H         8.1630786857       19.3408280709       10.1972982364
  O         0.0048288349       17.1989990000        5.2270000000
  O         0.0106561503       13.1430000000       10.7830000000
  O         8.1576466087       21.0049990000        8.0050000000
  O         8.1641612333       16.6946749816       13.8304583943
  H        -0.0004774120       17.5068502005        4.7133323153
  H        -0.0030037172       13.5034230467       10.1940898972
  H         8.1609819734       21.3660194016        7.4174166447
  H         8.1598542095       17.2410059051       13.0630899642
  O         8.1599533518       12.7284831472        3.2552604266
  O        -0.0050585553       16.2759990000        6.3070000000
  O        -0.0053567720       12.2200000000       11.8630000000
  O         8.1637969720       20.0809990000        9.0850000000
  H         8.1608845954       12.1809400241        4.0157289575
  H         0.0005746455       15.9185707074        6.8879089544
  H         0.0012515203       11.8852995501       12.4145304555
  H         8.1614057122       19.7191183105        9.6733797956
  O         0.0032566842       18.5662127728        3.2642032789
  O        -0.0052817800       14.2480000000        9.0850000000
  O         8.1607609297       22.1089990000        6.3070000000
  O         8.1670664205       18.0540010000       11.8630000000
  H        -0.0005519036       18.0164261624        4.0142597929
  H        -0.0016199631       13.8833341610        9.6734850457
  H         8.1611162286       21.7519709413        6.8893585202
  H         8.1599235088       17.7162117720       12.4123727336
  O         8.4554249086        9.1519664860       18.1930796707
  C         8.0363529188       10.4835637646       18.2273107980
  O         7.6206799920       11.8102639532       18.2638570554
     387
 i =        2, E =     -6912.8312059985
  O         8.8501335088        6.3140535553        0.8787204509
  O         8.8619685868        2.2479717955        6.4277467850
  O         0.7043684675       10.1106502111        3.6503551872
  O         0.6970314461        6.0543484726        9.1924621488
  O        13.5394383036        7.1862013050        1.5136267669
  O        13.5287252161        3.1222542804        7.0687390031
  O         5.3692643417       10.9884609229        4.2826648884
  O         5.3703634482        6.9478556371        9.8368602479
  O         2.0912318138        6.2040543792        0.8043794957
  O         2.0968000627        2.1430756741        6.3501254212
  O        10.2514672442       10.0214106146        3.5687296124
  O        10.2609108836        5.9570490539        9.1226275653
  O        15.6372024035        3.5303959800        3.1022439716
  O         7.4585713247        7.3309940195        5.8760966601
  O         7.4654602302        3.2687371274       11.4114044773
  O        15.6218233331       11.1358900019        8.6505602058
  O        10.9486753042        2.6322251418        2.4659078762
  O         2.7928172727        6.4575001817        5.2342836226
  O         2.7846194033        2.3961260771       10.7709920698
  O        10.9567418164       10.2610444162        8.0188892558
  O         6.0565064744        3.6183959385        3.1815517179
  O        14.2275265932        7.4360129180        5.9534301350
  O        14.2346973146        3.3863668187       11.4967411302
  O         6.0692039582       11.2374805842        8.7254959851
  O        15.6262192053        2.0561614417        5.1179476690
  O         7.4601465120        5.8625707532        7.8836941183
  O         7.4696309033        1.7968658392       13.4335976402
  O        15.6195698689        9.6701339175       10.6590069886
  O        10.9530304576        1.1622702113        4.4751271648
  O         2.7943709818        4.9902028645        7.2435373004
  O         2.7821453520        0.9266635479       12.7950201234
  O        10.9559445570        8.7937261278       10.0261043917
  O         6.0602706490        2.1543993930        5.1913271633
  O        14.2259922875        5.9697817686        7.9611096879
  O        14.2326312506        1.9090976859       13.5041889128
  O         6.0686224217        9.7617051948       10.7403225243
  O         8.8557921843        4.8419326566        2.8977986076
  O         8.8634380759        0.7819030366        8.4348338266
  O         0.7017353802        8.6434507549        5.6632552471
  O         0.6865000913        4.5815757698       11.2099019460
  O        13.5363880315        5.7146713923        3.5429021419
  O        13.5288380152        1.6553202325        9.0763059091
  O         5.3660314539        9.5206774724        6.2909149502
  O         5.3756882337        5.4796551052       11.8430616370
  O         2.0898395163        4.7249840243        2.8148312433
  O         2.0962365658        0.6768053749        8.3571675401
  O        10.2537368237        8.5433172393        5.5855993152
  O        10.2640930088        4.4951614736       11.1298813553
  O         6.8556366373        6.4038580871        2.4759681690
  O         6.8782371776        2.3295619535        8.0206758155
  O        15.0335454033       10.1920845513        5.2455480203
  O        15.0172774187        6.1368041566       10.8072479203
  O         9.1521236634        7.3146113498        3.1560382676
  O         9.1621451729        3.2485396531        8.6919968566
  O         1.0025053001       11.1120454561        5.9226770639
  O         0.9946215535        7.0534636340       11.4638200865
  P         8.4291738694        6.1983002307        2.3166116226
  P         8.3998706301        2.1632888883        7.9047587911
  P         0.2483142232       10.0202776478        5.1088107163
  P         0.2767343219        5.9842032214       10.7039564564
 Ca        10.2410254389        0.1549479541        6.4364811726
 Ca         2.0641229948        8.0082401841        3.6573438050
 Ca         2.0860115062        3.9638583372        9.2287052914
 Ca        10.2377531505        7.7591356393       11.9864824174
  O        13.6585555309        4.6617970480        1.2082882455
  O        13.6470751000        0.5941722020        6.7621086292
  O         5.4859654491        8.4620804480        3.9759077121
  O         5.4889762135        4.4021292462        9.5270506975
  O        11.5259649109        5.7909271105        2.0452960469
  O        11.5180045896        1.7334515236        7.5938258368
  O         3.3576205589        9.5985195513        4.8090522535
  O         3.3590547030        5.5461445690       10.3558041317
  P        13.0515366549        5.7976095335        2.0198158297
  P        13.0659345635        1.7522213978        7.5984112786
  P         4.9058412321        9.6076650631        4.8315148049
  P         4.8926287920        5.5400915343       10.4089240843
 Ca         6.1404008336        0.2336615397        6.4992798364
 Ca        14.2976157180        8.0778091085        3.7037276669
 Ca        14.3000610072        4.0371583302        9.2733389930
 Ca         6.1400330206        7.8323836443       12.0406595308
  O         3.9605577918        6.4668198658        2.5211561679
  O         3.9556081026        2.3907482473        8.0668056178
  O        12.1220786268       10.2625024884        5.2969677291
  O        12.1307807768        6.2108506905       10.8568994948
  O         3.7942423117        4.3780057885        1.0187900719
  O         3.8031462776        0.3302688071        6.5643979562
  O        11.9665308645        8.2067723727        3.8040217156
  O        11.9697245877        4.1405140881        9.3425395827
  P         3.0156912391        5.4532432897        1.7639250417
  P         3.0161417943        1.4164219950        7.3609737429
  P        11.1826279303        9.2479991803        4.5609532660
  P        11.1535671883        5.1968295865       10.1426834036
 Ca        16.2547390224        5.1958478207        1.6018864144
 Ca        16.2675940185        1.1302910691        7.1469435539
 Ca         8.1156180377        8.9762543214        4.3718389970
 Ca         8.1022148153        4.9219890852        9.9346484733
  O         1.3054900725        1.9742350826        3.5045432357
  O         9.4445845113        5.7820196200        6.2906096758
  O         9.4655359843        1.7073251384       11.8353488180
  O         1.2894508128        9.5876289877        9.0665749456
  O        15.3280202902        1.0563541111        2.8465705805
  O         7.1592900790        4.8636018139        5.6196884087
  O         7.1694889169        0.7969521340       11.1578334221
  O        15.3205761297        8.6662756841        8.3895374568
  P        16.0461790773        2.1279493382        3.6106095629
  P         7.9226043402        5.9474664303        6.4080241893
  P         7.8968909891        1.9142328299       11.9928911295
  P        16.0746077550        9.7560435377        9.2044349296
 Ca         6.0894454618        0.3578235447        2.3301658168
 Ca        14.2365603797        4.1479839828        5.0851691561
 Ca        14.2487946655        0.0992094708       10.6519697542
 Ca         6.0830561483        7.9563323201        7.8785061623
  O        10.8348651412        3.7089000959        4.7850758467
  O         2.6760321070        7.5171384561        7.5489613742
  O         2.6641762049        3.4494981615       13.1024677085
  O        10.8374316926       11.3185591636       10.3352837504
  O        12.9642379517        2.5647646755        3.9565601149
  O         4.8043737849        6.3782908712        6.7171952859
  O         4.7961078213        2.3211427634       12.2675242619
  O        12.9670721391       10.1828904583        9.5022781972
  P        11.4292868817        2.5718311870        3.9028351933
  P         3.2576430603        6.3589710767        6.7158938573
  P         3.2732593159        2.3169999546       12.2957759838
  P        11.4157220225       10.1684997445        9.4832373000
 Ca        10.1784734827        0.2869585267        2.2775052738
 Ca         2.0230481748        4.0725766506        5.0408340990
 Ca         2.0349028821        0.0280991198       10.6032740924
 Ca        10.1822462094        7.8778380283        7.8158736825
  O         4.1905887586        1.9007300572        3.4537305793
  O        12.3674453577        5.7219790488        6.2457443539
  O        12.3625507550        1.6457401830       11.7900108294
  O         4.1993135870        9.5178638214        9.0136196567
  O         4.3527845341        3.9705417357        4.9687126099
  O        12.5202265680        7.7811196060        7.7474736474
  O        12.5295690534        3.7323942488       13.2920378563
  O         4.3544468797       11.5733109224       10.5080036648
  P         5.1726624094        2.9158186145        4.1698435023
  P        13.3062789637        6.6949958636        6.9523544547
  P        13.3048206279        2.6586939421       12.5508110735
  P         5.1423726964       10.5274910929        9.7540267593
 Ca         8.2209759551        3.1819009270        4.3676008506
 Ca         0.0553579906        6.9797930938        7.1675977094
 Ca         0.0683228322        2.9263960600       12.7169099427
 Ca         8.2080180909       10.7973385782        9.9443066822
 Ca        13.6090129788        0.2647377800        4.3816740980
 Ca         5.4488876918        8.0882469212        1.6105651452
 Ca         5.4422277547        4.0500481275        7.1661094815
 Ca        13.6084234420        7.8556023414        9.9349557701
 Ca         2.7269630608        2.2929734223        1.6144948566
 Ca        10.8809974268        6.0795178501        4.3606975536
 Ca        10.8759845638        2.0308098209        9.9493333087
 Ca         2.7189430324        9.8848129493        7.1653476412
 Ca         2.7132026110        0.2558229456        4.3781591591
 Ca        10.8811442415        4.0610886019        7.1457454715
 Ca        10.8748167814        0.0223629355       12.7023843159
 Ca         2.7126780950        7.8479539430        9.9323458364
 Ca         5.4475443004        6.0804158701        4.3633648905
 Ca         5.4424520312        2.0309935899        9.9511343483
 Ca        13.6028836926        9.8941328370        7.1476212638
 Ca        13.5950734409        5.8186115768       12.6992141683
  O         8.1610388721       23.0099373010        5.2681424072
  O         0.0063862172        3.4918868859        8.0255527620
  O        -0.0028344616       22.5189422055       13.8249205473
  O         8.1559754959        7.3032205110       10.7951144554
  H         8.1607095163        0.0375292180        4.6519203860
  H        -0.0018164065        3.8729426137        7.3967277705
  H         0.0008797614       23.0749964493       13.0690614874
  H         8.1628934143        7.6824979848       10.1787348848
  O         0.0055215488        5.5071089273        5.2694755870
  O         0.0110488816        1.4687571715       10.7963972408
  O         8.1585399311        9.3259204108        8.0231938754
  O         8.1640668221        5.0264918641       13.8323585778
  H        -0.0011415522        5.8730826414        4.6535215747
  H        -0.0036561452        1.8436081673       10.1764956621
  H         8.1613341235        9.7085635751        7.3972851046
  H         8.1599106185        5.5705641494       13.0657640800
  O         8.1596053584        1.0608615874        3.2524208389
  O        -0.0055318612        4.6169859084        6.2908906055
  O        -0.0058143417        0.5653971242       11.8384563022
  O         8.1626687812        8.4252565818        9.0677025728
  H         8.1609382908        0.5139385665        4.0146703380
  H         0.0010713234        4.2402842824        6.9082022763
  H         0.0017761671        0.1960105420       12.4540937042
  H         8.1615262192        8.0414043123        9.6917849407
  O         0.0033038707        6.9002672196        3.2619941378
  O        -0.0052675901        2.5920086675        9.0650659524
  O         8.1615912815       10.4502942790        6.2923706338
  O         8.1663698878        6.3999044659       11.8417774895
  H        -0.0005511686        6.3493197795        4.0128860222
  H        -0.0012174656        2.2073177282        9.6910587818
  H         8.1610139007       10.0723283529        6.9099821064
  H         8.1593555320        6.0249044694       12.4509302956
  O         8.8502295230       17.9822218350        0.8785282079
  O         8.8619866037       13.9158436562        6.4277629702
  O         0.7043641111       21.7786268516        3.6503511216
  O         0.6970257350       17.7223160090        9.1924375160
  O        13.5394132219       18.8542678664        1.5136922874
  O        13.5288455413       14.7895571469        7.0686457476
  O         5.3691111050       22.6561399598        4.2827799439
  O         5.3704718783       18.6151727139        9.8367728346
  O         2.0912098697       17.8721584513        0.8044095346
  O         2.0967620828       13.8100118180        6.3500972924
  O        10.2514483424       21.6894829344        3.5687534022
  O        10.2609152849       17.6240229058        9.1226010904
  O        15.6372196228       15.1983557606        3.1022612046
  O         7.4584976595       18.9982821130        5.8759494981
  O         7.4655578834       14.9366548926       11.4113152338
  O        15.6217883235       22.8028878355        8.6505345684
  O        10.9486751911       14.2992382941        2.4658926921
  O         2.7927837883       18.1245678653        5.2342557779
  O         2.7846194095       14.0630705854       10.7709144757
  O        10.9567769589       21.9280742417        8.0188833145
  O         6.0564839066       15.2853800143        3.1815118664
  O        14.2275913014       19.1030208649        5.9533807553
  O        14.2346507497       15.0543290149       11.4967814833
  O         6.0692340206       22.9044770659        8.7254926972
  O        15.6262258944       13.7241862074        5.1179736090
  O         7.4602054919       17.5305438324        7.8837106940
  O         7.4695404620       13.4648241307       13.4338087113
  O        15.6195592776       21.3380448179       10.6589961135
  O        10.9531197692       12.8295806976        4.4750621130
  O         2.7944661335       16.6575513144        7.2434554865
  O         2.7821532015       12.5945034587       12.7950037373
  O        10.9561208641       20.4610860758       10.0260442032
  O         6.0603261249       13.8222282701        5.1914671768
  O        14.2259954119       17.6368294492        7.9610683443
  O        14.2326349893       13.5771254582       13.5042260727
  O         6.0686634024       21.4287307915       10.7402681472
  O         8.8557170730       16.5098954906        2.8978577091
  O         8.8634282628       12.4489118742        8.4347897672
  O         0.7017169094       20.3114225922        5.6632540477
  O         0.6863582601       16.2489159516       11.2097247939
  O        13.5363920744       17.3816918508        3.5428506265
  O        13.5288393462       13.3223227412        9.0762787581
  O         5.3659955458       21.1876721793        6.2908551064
  O         5.3756721233       17.1466673224       11.8430295835
  O         2.0899228035       16.3920186014        2.8146637700
  O         2.0962367131       12.3437566114        8.3571681176
  O        10.2536766043       20.2113342321        5.5856106158
  O        10.2641183605       16.1621515378       11.1298765410
  O         6.8555321620       18.0718622982        2.4759512291
  O         6.8782835246       13.9974862844        8.0206689960
  O        15.0335348111       21.8600555554        5.2455439917
  O        15.0172573459       17.8048135822       10.8072463714
  O         9.1521263043       18.9825906943        3.1560020309
  O         9.1621856468       14.9156287267        8.6920186347
  O         1.0025256951       22.7799604716        5.9226458246
  O         0.9947224259       18.7207203740       11.4639436737
  P         8.4292120400       17.8660821414        2.3169483911
  P         8.3998116203       13.8304584342        7.9047649528
  P         0.2483174661       21.6882934289        5.1088171083
  P         0.2767659776       17.6517046235       10.7040110214
 Ca        10.2411997400       11.8220755224        6.4365102713
 Ca         2.0641366708       19.6761795062        3.6573410156
 Ca         2.0861537957       15.6309223576        9.2286724764
 Ca        10.2377359449       19.4260185264       11.9863209065
  O        13.6585414563       16.3298726801        1.2082684181
  O        13.6471025073       12.2621618114        6.7620740914
  O         5.4859524988       20.1290971460        3.9759039246
  O         5.4889660291       16.0701179609        9.5270171037
  O        11.5259442925       17.4579250972        2.0452174750
  O        11.5179815664       13.4014710239        7.5938108187
  O         3.3575927141       21.2654854665        4.8090435824
  O         3.3589952404       17.2141870667       10.3558005717
  P        13.0515686614       17.4654088635        2.0198378205
  P        13.0658284412       13.4198778799        7.5985254622
  P         4.9060059633       21.2749623746        4.8314899163
  P         4.8925702572       17.2077277300       10.4090795528
 Ca         6.1404883614       11.9007891476        6.4993227668
 Ca        14.2976239756       19.7457847576        3.7037298185
 Ca        14.3000705888       15.7050685961        9.2733194975
 Ca         6.1399850755       19.5002981532       12.0406652063
  O         3.9606594319       18.1339591308        2.5212683242
  O         3.9554313197       14.0585616136        8.0666998052
  O        12.1222307232       21.9296401819        5.2970451341
  O        12.1307971453       17.8778039772       10.8568712855
  O         3.7942347324       16.0459805246        1.0187491968
  O         3.8031434280       11.9973254450        6.5644166020
  O        11.9665364890       19.8747432106        3.8039699806
  O        11.9697446504       15.8075827475        9.3425417783
  P         3.0155216467       17.1209597194        1.7639667106
  P         3.0163124601       13.0836149889        7.3610665030
  P        11.1825162666       20.9158498735        4.5608991979
  P        11.1535721771       16.8638235417       10.1427378801
 Ca        16.2547436794       16.8637879538        1.6018714258
 Ca        16.2676335621       12.7980904159        7.1468025246
 Ca         8.1156367035       20.6432119521        4.3717644837
 Ca         8.1021083273       16.5898225304        9.9346865153
  O         1.3054727179       13.6422561713        3.5045505198
  O         9.4446379511       17.4500811065        6.2906310532
  O         9.4655816680       13.3753176867       11.8354128618
  O         1.2894771686       21.2555850147        9.0665637747
  O        15.3281507362       12.7236361647        2.8467097022
  O         7.1593948998       16.5308956897        5.6198646666
  O         7.1694748975       12.4648786049       11.1579467156
  O        15.3206006541       20.3333266232        8.3895678460
  P        16.0460883150       13.7957428968        3.6104456806
  P         7.9225207746       17.6149570640        6.4079875638
  P         7.8968637119       13.5823968248       11.9925222077
  P        16.0745927308       21.4232170422        9.2044539294
 Ca         6.0894758146       12.0248577522        2.3301550469
 Ca        14.2365166405       15.8149931913        5.0852114906
 Ca        14.2487683999       11.7671745658       10.6519460861
 Ca         6.0834333484       19.6235130388        7.8786439175
  O        10.8348758629       15.3768618295        4.7850669041
  O         2.6760048383       19.1851450385        7.5489353416
  O         2.6641356192       15.1166683365       13.1025434733
  O        10.8374292166       22.9865477386       10.3352932143
  O        12.9642281140       14.2327456908        3.9565786740
  O         4.8042904759       18.0462915965        6.7171611248
  O         4.7961094606       13.9881138445       12.2675792775
  O        12.9670806121       21.8509110300        9.5023006927
  P        11.4292515660       14.2395143072        3.9029373056
  P         3.2576415723       18.0265733654        6.7160113787
  P         3.2732526159       13.9848654338       12.2957591828
  P        11.4155834307       21.8360821996        9.4832715688
 Ca        10.1784662839       11.9549479703        2.2775414163
 Ca         2.0230645049       15.7405577830        5.0409157974
 Ca         2.0349842601       11.6960682212       10.6033079680
 Ca        10.1823991606       19.5448826974        7.8159526447
  O         4.1905768538       13.5676931198        3.4537440823
  O        12.3674672873       17.3889993039        6.2457443044
  O        12.3627342565       13.3129077585       11.7901405972
  O         4.1991743087       21.1857571492        9.0135496782
  O         4.3528652024       15.6382855821        4.9685651404
  O        12.5202208046       19.4481701656        7.7474629464
  O        12.5295563791       15.4003270894       13.2920464136
  O         4.3544239292       23.2403895328       10.5080692202
  P         5.1725441211       14.5831481103        4.1698681066
  P        13.3062691381       18.3619303168        6.9523994903
  P        13.3046942769       14.3265531190       12.5506535358
  P         5.1424857454       22.1945713276        9.7540414278
 Ca         8.2209758312       14.8499742855        4.3675341996
 Ca         0.0553611100       18.6477959513        7.1676703147
 Ca         0.0683152452       14.5934922334       12.7168920882
 Ca         8.2081323043       22.4653857899        9.9443179200
 Ca        13.6089972013       11.9317714413        4.3816558867
 Ca         5.4489324256       19.7561888098        1.6105536002
 Ca         5.4422358146       15.7180301636        7.1661194805
 Ca        13.6083822998       19.5235495190        9.9350046353
 Ca         2.7269574323       13.9610097297        1.6145089749
 Ca        10.8809638619       17.7474747123        4.3607142926
 Ca        10.8759475376       13.6978193280        9.9493106535
 Ca         2.7189721070       21.5528013422        7.1653440806
 Ca         2.7131584599       11.9238124498        4.3781780112
 Ca        10.8810837344       15.7290184241        7.1457601917
 Ca        10.8747898968       11.6903218540       12.7022959847
 Ca         2.7126947151       19.5158905678        9.9323636239
 Ca         5.4475856039       17.7474034352        4.3633373459
 Ca         5.4425001134       13.6989913337        9.9510962173
 Ca        13.6028674214       21.5611628998        7.1476143752
 Ca        13.5950800627       17.4866387466       12.6991982215
  O         8.1598502415       11.3417819384        5.2675985536
  O         0.0064326199       15.1589314874        8.0251123082
  O        -0.0028115463       10.8510420935       13.8247155476
  O         8.1535347040       18.9711911154       10.7951479210
  H         8.1610104069       11.7061655989        4.6525689131
  H        -0.0019173062       15.5420303574        7.3970479977
  H         0.0008641064       11.4076509822       13.0693322951
  H         8.1634256029       19.3503806723       10.1787644562
  O         0.0055940176       17.1750493215        5.2694282388
  O         0.0109451810       13.1358706681       10.7959389302
  O         8.1576498506       20.9937834105        8.0235230151
  O         8.1642827266       16.6937722649       13.8321909472
  H        -0.0012736739       17.5415200563        4.6537554821
  H        -0.0036271483       13.5123416115       10.1766763396
  H         8.1611794397       21.3760218865        7.3974995661
  H         8.1597658075       17.2383935357       13.0660756830
  O         8.1595469997       12.7288364878        3.2522683152
  O        -0.0051713150       16.2848917627        6.2911143462
  O        -0.0059600307       12.2334081303       11.8387767929
  O         8.1640783394       20.0923302777        9.0673775992
  H         8.1609552132       12.1819048914        4.0148895028
  H         0.0009187980       15.9078104668        6.9085056325
  H         0.0018525919       11.8627403383       12.4535688685
  H         8.1610424328       19.7096022938        9.6920679785
  O         0.0032421490       18.5675983590        3.2617231496
  O        -0.0054311406       14.2598451256        9.0654564165
  O         8.1606560956       22.1173715777        6.2919597820
  O         8.1680349200       18.0678918831       11.8417244079
  H        -0.0005792758       18.0172312480        4.0132678013
  H        -0.0011636939       13.8747109176        9.6915593716
  H         8.1611730191       21.7409660513        6.9103395233
  H         8.1592157799       17.6929066152       12.4509084642
  O         8.4541138126        9.1565257212       18.1931482952
  C         8.0363205720       10.4836389284       18.2273577827
  O         7.6219904089       11.8057566574       18.2637557987
     387
 i =        3, E =     -6913.5745775577
  O         8.8495348104        6.3147945704        0.8764466692
  O         8.8622173144        2.2483480230        6.4281587331
  O         0.7058026724       10.1106839724        3.6486148596
  O         0.6967249671        6.0546358171        9.1927475767
  O        13.5405253709        7.1866103244        1.5134848729
  O        13.5289229973        3.1226658535        7.0688197887
  O         5.3700091821       10.9889160799        4.2808269768
  O         5.3700769603        6.9487010084        9.8378085735
  O         2.0897444854        6.2052950214        0.8046025017
  O         2.0969833657        2.1428249816        6.3498797113
  O        10.2509024504       10.0231559233        3.5680944914
  O        10.2617080177        5.9578187061        9.1222574989
  O        15.6391523882        3.5315095721        3.1022267820
  O         7.4581708518        7.3315406491        5.8756573493
  O         7.4655392639        3.2682273875       11.4100961796
  O        15.6215539398       11.1360329101        8.6503366699
  O        10.9467855550        2.6302639126        2.4644057131
  O         2.7929532928        6.4581193172        5.2338739184
  O         2.7850945966        2.3956787307       10.7716825567
  O        10.9566764371       10.2610605866        8.0196771245
  O         6.0575597777        3.6187523418        3.1797938152
  O        14.2270840054        7.4367865499        5.9535321889
  O        14.2344301927        3.3872758191       11.4973661282
  O         6.0693133186       11.2374267304        8.7257294123
  O        15.6265468402        2.0558399972        5.1177144534
  O         7.4598684586        5.8623478908        7.8833377250
  O         7.4700418854        1.7958283598       13.4357148353
  O        15.6180162269        9.6696468332       10.6600587764
  O        10.9533309088        1.1615569956        4.4739660440
  O         2.7941792445        4.9897942408        7.2435820683
  O         2.7817044075        0.9266317612       12.7951813982
  O        10.9551696059        8.7930973934       10.0282485856
  O         6.0594010614        2.1540055165        5.1914757748
  O        14.2258317929        5.9700646972        7.9614024163
  O        14.2338300918        1.9083927077       13.5038279805
  O         6.0694540729        9.7599131826       10.7412494073
  O         8.8554681091        4.8421948463        2.8989956729
  O         8.8638605969        0.7813442702        8.4353221577
  O         0.7021217087        8.6436960851        5.6634316218
  O         0.6846566657        4.5805228331       11.2098740677
  O        13.5361500978        5.7153763900        3.5421549785
  O        13.5288673910        1.6548330207        9.0768080932
  O         5.3661625554        9.5208027080        6.2904696251
  O         5.3771101916        5.4816773930       11.8443170067
  O         2.0900290014        4.7240649792        2.8139110265
  O         2.0964275291        0.6760561272        8.3571124573
  O        10.2534796141        8.5433513027        5.5856430852
  O        10.2636594630        4.4948075182       11.1310882469
  O         6.8557066543        6.4057942990        2.4758518136
  O         6.8769451327        2.3298367947        8.0207597711
  O        15.0327228093       10.1923559502        5.2446501357
  O        15.0161119557        6.1375392357       10.8086470273
  O         9.1505141339        7.3144322012        3.1562528303
  O         9.1624926150        3.2491582432        8.6924884675
  O         1.0027654757       11.1123202970        5.9231507177
  O         0.9957939376        7.0565847382       11.4652556142
  P         8.4289844609        6.1983443231        2.3173969454
  P         8.4003690800        2.1627194554        7.9033558113
  P         0.2486197349       10.0196605929        5.1090752344
  P         0.2771110603        5.9833772117       10.7028149431
 Ca        10.2407640955        0.1554810413        6.4359361514
 Ca         2.0625898398        8.0072025177        3.6580078114
 Ca         2.0863620555        3.9645066840        9.2298825373
 Ca        10.2360638738        7.7560636494       11.9842987295
  O        13.6604402675        4.6619699436        1.2073427625
  O        13.6470674938        0.5931453538        6.7618637864
  O         5.4866658215        8.4621199391        3.9737997206
  O         5.4889372443        4.4018197190        9.5263333531
  O        11.5245079673        5.7905941989        2.0457317683
  O        11.5169903648        1.7330347875        7.5942281141
  O         3.3571336952        9.5986218825        4.8078270718
  O         3.3579804639        5.5466093591       10.3541994655
  P        13.0524310878        5.7981712391        2.0217653700
  P        13.0664543016        1.7527266295        7.5989087616
  P         4.9055056469        9.6079219606        4.8331426738
  P         4.8926849110        5.5407388184       10.4088535360
 Ca         6.1408785008        0.2340711106        6.4999506300
 Ca        14.2971882977        8.0759946509        3.7035032019
 Ca        14.3001469893        4.0372368644        9.2733624664
 Ca         6.1402439381        7.8295153267       12.0381355940
  O         3.9604205458        6.4687966878        2.5206445911
  O         3.9566456275        2.3915152614        8.0671972972
  O        12.1221201666       10.2629428438        5.2965033225
  O        12.1319594462        6.2130888588       10.8586056365
  O         3.7947632220        4.3746772278        1.0180563513
  O         3.8036771100        0.3295475938        6.5632845414
  O        11.9690723208        8.2054115120        3.8033982871
  O        11.9706973576        4.1406087120        9.3424117477
  P         3.0147117568        5.4528644942        1.7638514084
  P         3.0149657170        1.4160589132        7.3608075122
  P        11.1814749252        9.2492304200        4.5615047533
  P        11.1526461786        5.1962226754       10.1414458568
 Ca        16.2537175741        5.1966499284        1.6036559960
 Ca        16.2676868168        1.1302318202        7.1466554980
 Ca         8.1173547457        8.9749713860        4.3733602922
 Ca         8.1018846660        4.9217282452        9.9356822952
  O         1.3067648781        1.9735315387        3.5030769468
  O         9.4457468306        5.7818412293        6.2904498079
  O         9.4654881253        1.7048938493       11.8352804375
  O         1.2904558838        9.5873877937        9.0673438224
  O        15.3270591380        1.0531902991        2.8452080609
  O         7.1589348203        4.8626828902        5.6190102019
  O         7.1711067982        0.7970914676       11.1575811735
  O        15.3202481601        8.6658586398        8.3888219200
  P        16.0455380090        2.1287943629        3.6115070664
  P         7.9222053729        5.9481921204        6.4092557212
  P         7.8972434769        1.9146379204       11.9921852641
  P        16.0741066978        9.7565690702        9.2048731055
 Ca         6.0901001721        0.3600851557        2.3326359927
 Ca        14.2363327453        4.1475567671        5.0840655562
 Ca        14.2507375935        0.1001111429       10.6520533781
 Ca         6.0832137401        7.9558354052        7.8789772046
  O        10.8348840739        3.7092352907        4.7856481000
  O         2.6760823437        7.5182192060        7.5492069122
  O         2.6622913134        3.4496059181       13.1035062435
  O        10.8366421144       11.3184725123       10.3374340566
  O        12.9651553020        2.5644356695        3.9580322631
  O         4.8055396095        6.3787884461        6.7167386316
  O         4.7977638961        2.3215901461       12.2670976508
  O        12.9671776937       10.1829733185        9.5034061244
  P        11.4295106942        2.5710577224        3.9031645141
  P         3.2569065785        6.3586089593        6.7150666934
  P         3.2719895418        2.3162300976       12.2936845794
  P        11.4165025703       10.1688728705        9.4808852642
 Ca        10.1787734780        0.2894183292        2.2800982506
 Ca         2.0226518373        4.0727755192        5.0410202449
 Ca         2.0350960324        0.0297238795       10.6038778408
 Ca        10.1819005752        7.8773663263        7.8151523374
  O         4.1896076653        1.8988734820        3.4518830015
  O        12.3663143390        5.7212582423        6.2453887511
  O        12.3623614635        1.6434794126       11.7903742450
  O         4.1993306707        9.5175761524        9.0140484629
  O         4.3519854835        3.9702432389        4.9685027466
  O        12.5195663408        7.7818056900        7.7486917499
  O        12.5288567171        3.7358453416       13.2927714320
  O         4.3520575134       11.5744628347       10.5083406049
  P         5.1728721741        2.9159272502        4.1717446469
  P        13.3077378961        6.6955173426        6.9522838702
  P        13.3064041865        2.6590197983       12.5511956088
  P         5.1430542714       10.5269760314        9.7530313015
 Ca         8.2214970890        3.1824922603        4.3668565232
 Ca         0.0552084137        6.9797012017        7.1677007965
 Ca         0.0690667389        2.9254510825       12.7154400591
 Ca         8.2062394408       10.7987309416        9.9427004524
 Ca        13.6098252735        0.2673833740        4.3820480783
 Ca         5.4491341568        8.0842506687        1.6119275161
 Ca         5.4422770202        4.0502348744        7.1665806040
 Ca        13.6101541638        7.8551581243        9.9326870807
 Ca         2.7274919575        2.2972759933        1.6166520465
 Ca        10.8811136634        6.0797516479        4.3586857391
 Ca        10.8756895429        2.0321764296        9.9497254715
 Ca         2.7185421605        9.8849359290        7.1658513617
 Ca         2.7117409619        0.2562457181        4.3804974630
 Ca        10.8811139227        4.0609179198        7.1453989702
 Ca        10.8748505676        0.0269243692       12.7011132175
 Ca         2.7116985406        7.8453772865        9.9321414841
 Ca         5.4478885968        6.0792626310        4.3631114936
 Ca         5.4423547580        2.0307805824        9.9531117633
 Ca        13.6032931125        9.8939415035        7.1472167189
 Ca        13.5945846863        5.8142045234       12.6973985975
  O         8.1602336716       23.0101394457        5.2828428603
  O         0.0069660631        3.4800558604        8.0546439309
  O        -0.0029080694       22.5150935633       13.8301331392
  O         8.1560990167        7.2973432603       10.8191777614
  H         8.1610241186        0.0604357944        4.6088954830
  H        -0.0027871891        3.8794853212        7.3754790080
  H         0.0007205264       23.0673423283       13.0789653919
  H         8.1633350250        7.6930320366       10.1524476674
  O         0.0066522740        5.5068946412        5.2867824421
  O         0.0120775603        1.4603964951       10.8223536555
  O         8.1585691652        9.3157424762        8.0486901503
  O         8.1644044412        5.0236711160       13.8382345308
  H        -0.0020382137        5.8946443720        4.6113311130
  H        -0.0050986270        1.8525719354       10.1523251056
  H         8.1615864622        9.7164810191        7.3747424155
  H         8.1598510861        5.5621609511       13.0754515053
  O         8.1587714440        1.0631126675        3.2432841609
  O        -0.0061048665        4.6245346976        6.2653382738
  O        -0.0071365690        0.5706308695       11.8151069568
  O         8.1634322879        8.4364737972        9.0423442386
  H         8.1610522973        0.5192566387        4.0085509602
  H         0.0019150743        4.2304342928        6.9340290197
  H         0.0028922846        0.1728537695       12.4984214053
  H         8.1609696510        8.0329241727        9.7137621969
  O         0.0035023401        6.9047308780        3.2548568222
  O        -0.0059530645        2.6038260978        9.0353390454
  O         8.1614927815       10.4567550571        6.2693085519
  O         8.1680687253        6.4067960362       11.8240369711
  H        -0.0006609372        6.3543733367        4.0063315597
  H        -0.0002990995        2.2010771375        9.7119236563
  H         8.1610631135       10.0616637510        6.9365297987
  H         8.1583149327        5.9989327183       12.4952371382
  O         8.8496363940       17.9830014194        0.8762589755
  O         8.8622336028       13.9162151528        6.4281765898
  O         0.7057985722       21.7786640639        3.6486096237
  O         0.6967183883       17.7226037196        9.1927303328
  O        13.5405083857       18.8547066067        1.5135628466
  O        13.5290427051       14.7899749447        7.0687361586
  O         5.3698621067       22.6565924851        4.2809479940
  O         5.3701807982       18.6160152990        9.8377349106
  O         2.0897278701       17.8734046884        0.8046424831
  O         2.0969560108       13.8097514652        6.3498564831
  O        10.2508830895       21.6912264545        3.5681125986
  O        10.2617043993       17.6247931304        9.1222293081
  O        15.6391788651       15.1994568596        3.1022436283
  O         7.4580904775       18.9988286172        5.8755178938
  O         7.4656366957       14.9362082271       11.4100381557
  O        15.6215131370       22.8030374513        8.6503033319
  O        10.9467912104       14.2972687132        2.4644016182
  O         2.7929253769       18.1251954541        5.2338569643
  O         2.7850817207       14.0626207294       10.7716004914
  O        10.9566956955       21.9280833149        8.0196610074
  O         6.0575362630       15.2857370734        3.1797456430
  O        14.2271405063       19.1037996874        5.9534943781
  O        14.2343801435       15.0552323763       11.4974001822
  O         6.0693576002       22.9044237219        8.7257130951
  O        15.6265532291       13.7238676632        5.1177386748
  O         7.4599259884       17.5303287012        7.8833647886
  O         7.4699280364       13.4638091524       13.4358670533
  O        15.6180062067       21.3375489330       10.6600582370
  O        10.9534154709       12.8288744146        4.4739038512
  O         2.7942841874       16.6571464520        7.2435086061
  O         2.7817130141       12.5944915439       12.7951787912
  O        10.9553372037       20.4604492064       10.0281882008
  O         6.0594490773       13.8218367214        5.1916234057
  O        14.2258373863       17.6371075112        7.9613678578
  O        14.2338268157       13.5764472683       13.5038595217
  O         6.0695027055       21.4269155267       10.7411883033
  O         8.8553917215       16.5101581137        2.8990542678
  O         8.8638394052       12.4483742672        8.4352707695
  O         0.7021020685       20.3116786045        5.6634263934
  O         0.6845103828       16.2478638636       11.2096864125
  O        13.5361410408       17.3824185655        3.5421023253
  O        13.5288668030       13.3218355259        9.0767896751
  O         5.3661324867       21.1877873430        6.2904215693
  O         5.3771017534       17.1486759789       11.8443115438
  O         2.0901144961       16.3911029879        2.8137428596
  O         2.0964413699       12.3430112139        8.3571093762
  O        10.2534143341       20.2113677139        5.5856548122
  O        10.2636844845       16.1617864907       11.1310799295
  O         6.8556088038       18.0738039171        2.4758455752
  O         6.8769825578       13.9977631267        8.0207618096
  O        15.0327124411       21.8603261985        5.2446447089
  O        15.0160981770       17.8055510017       10.8086472341
  O         9.1505451969       18.9824075863        3.1562030223
  O         9.1625298114       14.9162678759        8.6925194127
  O         1.0027904556       22.7802400789        5.9231209066
  O         0.9958985648       18.7238615428       11.4653795617
  P         8.4289769329       17.8660694837        2.3177520511
  P         8.4003286304       13.8298732417        7.9033592301
  P         0.2486200995       21.6876581159        5.1090807219
  P         0.2771341370       17.6508623219       10.7028574919
 Ca        10.2409259318       11.8226002196        6.4359663466
 Ca         2.0626013390       19.6751255130        3.6580071090
 Ca         2.0865015134       15.6315658345        9.2298631569
 Ca        10.2360420629       19.4229424064       11.9841380751
  O        13.6604119022       16.3300637630        1.2073102019
  O        13.6470936586       12.2611259971        6.7618241203
  O         5.4866506984       20.1291474725        3.9738061966
  O         5.4889393007       16.0697893856        9.5263063540
  O        11.5245049055       17.4576026491        2.0456242936
  O        11.5169627446       13.4010608187        7.5942135473
  O         3.3571213263       21.2655833257        4.8078170381
  O         3.3579318618       17.2146568759       10.3541973847
  P        13.0524768670       17.4658918745        2.0218224409
  P        13.0663561018       13.4203827199        7.5990110479
  P         4.9056589911       21.2752047771        4.8331075454
  P         4.8926108144       17.2083835766       10.4089829047
 Ca         6.1409662429       11.9011996692        6.4999861288
 Ca        14.2971984053       19.7439538673        3.7035096105
 Ca        14.3001532554       15.7051403601        9.2733437862
 Ca         6.1402002413       19.4974493535       12.0381542540
  O         3.9605182864       18.1359552275        2.5207628701
  O         3.9564734164       14.0593315090        8.0670972634
  O        12.1222738694       21.9300878351        5.2965798753
  O        12.1319777312       17.8800462894       10.8585770834
  O         3.7947566556       16.0426429755        1.0180060365
  O         3.8036790824       11.9966225843        6.5633116481
  O        11.9690667012       19.8733801565        3.8033413114
  O        11.9707174858       15.8076912989        9.3424138282
  P         3.0145461495       17.1205765014        1.7638909090
  P         3.0151127189       13.0832394301        7.3608857387
  P        11.1813789462       20.9170811058        4.5614540226
  P        11.1526541586       16.8632044974       10.1415045864
 Ca        16.2537178008       16.8645800132        1.6036469288
 Ca        16.2677252086       12.7980338347        7.1465090353
 Ca         8.1173617858       20.6419457927        4.3732769081
 Ca         8.1018006241       16.5895744222        9.9357132843
  O         1.3067589356       13.6415525000        3.5030852983
  O         9.4457931937       17.4499111811        6.2904745504
  O         9.4655325715       13.3728779296       11.8353407055
  O         1.2904797596       21.2553405180        9.0673337497
  O        15.3271896609       12.7204791053        2.8453568718
  O         7.1590361567       16.5299833264        5.6191901280
  O         7.1711222689       12.4650652551       11.1576861657
  O        15.3202737356       20.3329273529        8.3888653950
  P        16.0454277473       13.7966040007        3.6113397063
  P         7.9221352024       17.6156879727        6.4092086807
  P         7.8972287182       13.5826308861       11.9919077595
  P        16.0740983970       21.4237439922        9.2048812602
 Ca         6.0901404397       12.0271285351        2.3326368982
 Ca        14.2363031795       15.8145649273        5.0841001263
 Ca        14.2507150620       11.7680635641       10.6520234556
 Ca         6.0835539713       19.6230045460        7.8790968121
  O        10.8348908007       15.3771872824        4.7856340890
  O         2.6760626154       19.1862070366        7.5491728117
  O         2.6622224006       15.1167792437       13.1036089262
  O        10.8366421259       22.9864402903       10.3374241332
  O        12.9651291440       14.2324080822        3.9580566912
  O         4.8054721839       18.0467891956        6.7167117043
  O         4.7977608874       13.9885600050       12.2671666553
  O        12.9671732117       21.8509900223        9.5034199106
  P        11.4294894325       14.2387534892        3.9032517625
  P         3.2568811775       18.0262221547        6.7151724396
  P         3.2720286200       13.9840880014       12.2936256217
  P        11.4163851814       21.8364841767        9.4809406399
 Ca        10.1787652100       11.9574010115        2.2801336590
 Ca         2.0226476431       15.7407524408        5.0411005965
 Ca         2.0351633086       11.6976878061       10.6038995341
 Ca        10.1820792303       19.5443934732        7.8152163388
  O         4.1896010810       13.5658342110        3.4519034129
  O        12.3663330655       17.3882787766        6.2453921249
  O        12.3625481707       13.3106540482       11.7905062875
  O         4.1991810500       21.1854515947        9.0139707197
  O         4.3520630814       15.6379846068        4.9683640305
  O        12.5195563097       19.4488675857        7.7486862071
  O        12.5288412553       15.4037670561       13.2927765845
  O         4.3520457775       23.2415342223       10.5083944754
  P         5.1727633495       14.5832388807        4.1717625558
  P        13.3077380225       18.3624594468        6.9523095338
  P        13.3062861405       14.3268748418       12.5510549563
  P         5.1431478932       22.1940947051        9.7530641053
 Ca         8.2214895226       14.8505689101        4.3667935256
 Ca         0.0552169534       18.6476813391        7.1677574229
 Ca         0.0690653057       14.5925431294       12.7154200726
 Ca         8.2063387315       22.4667983433        9.9427413654
 Ca        13.6098190211       11.9344248391        4.3820231007
 Ca         5.4491962503       19.7521764765        1.6119028423
 Ca         5.4422815394       15.7182041845        7.1665755098
 Ca        13.6101105482       19.5230984069        9.9327370423
 Ca         2.7274812147       13.9653176916        1.6166675602
 Ca        10.8810955952       17.7476956644        4.3587107636
 Ca        10.8756497788       13.6991833408        9.9496989859
 Ca         2.7185742950       21.5529197719        7.1658489383
 Ca         2.7116886969       11.9242347559        4.3805216672
 Ca        10.8810538723       15.7288354186        7.1454124007
 Ca        10.8748222705       11.6948827377       12.7010266379
 Ca         2.7117109641       19.5133133047        9.9321550289
 Ca         5.4479318237       17.7462514194        4.3630675906
 Ca         5.4423661905       13.6987583869        9.9530605919
 Ca        13.6032776791       21.5609724602        7.1472074951
 Ca        13.5945917676       17.4822259065       12.6973828802
  O         8.1588718235       11.3416729271        5.2822029200
  O         0.0070057410       15.1468544740        8.0540303331
  O        -0.0028912277       10.8471678139       13.8299410581
  O         8.1533823884       18.9654586339       10.8191092144
  H         8.1614829721       11.7293382081        4.6094945283
  H        -0.0029064492       15.5486369474        7.3761610414
  H         0.0006853707       11.4000524527       13.0792443614
  H         8.1642184716       19.3607905211       10.1526091748
  O         0.0067871551       17.1748016476        5.2866298420
  O         0.0119639565       13.1274582922       10.8214996449
  O         8.1575884913       20.9835152090        8.0493960144
  O         8.1646903745       16.6909052709       13.8380329512
  H        -0.0022057921       17.5631337029        4.6115950368
  H        -0.0050525989       13.5212872160       10.1529213403
  H         8.1615070616       21.3838809156        7.3748463876
  H         8.1595877592       17.2301133238       13.0757435821
  O         8.1587293314       12.7310466808        3.2431737108
  O        -0.0056687669       16.2924072897        6.2657174093
  O        -0.0072450863       12.2387648848       11.8156494087
  O         8.1649812652       20.1035768485        9.0415544102
  H         8.1610633651       12.1872448297        4.0087071100
  H         0.0016893969       15.8980353074        6.9340278589
  H         0.0029745595       11.8393762982       12.4978767788
  H         8.1602340778       19.7013138747        9.7140636787
  O         0.0034018385       18.5720692787        3.2545541656
  O        -0.0061550347       14.2717611884        9.0358050872
  O         8.1604376940       22.1235786287        6.2687670129
  O         8.1700259121       18.0746640577       11.8240179205
  H        -0.0006903283       18.0222623042        4.0067292392
  H        -0.0002122456       13.8686061664        9.7121043562
  H         8.1613520208       21.7304918667        6.9369782100
  H         8.1579654702       17.6669233174       12.4952253473
  O         8.4487333544        9.1743785072       18.1935035122
  C         8.0362115689       10.4838991328       18.2274932005
  O         7.6274428586       11.7878595046       18.2634325009
     387
 i =        4, E =     -6914.0157973266
  O         8.8479713647        6.3164251228        0.8724731025
  O         8.8628958959        2.2487926271        6.4284124997
  O         0.7085971312       10.1105965634        3.6455889977
  O         0.6962276335        6.0549343410        9.1918258729
  O        13.5432647042        7.1880360011        1.5134692672
  O        13.5297939391        3.1237776090        7.0690608247
  O         5.3716999830       10.9899136451        4.2776223181
  O         5.3701919603        6.9514956173        9.8389030854
  O         2.0864380264        6.2078139251        0.8053936388
  O         2.0967377354        2.1426307364        6.3492905965
  O        10.2493571237       10.0269702543        3.5670457178
  O        10.2626279220        5.9598636165        9.1209566548
  O        15.6431582195        3.5343612375        3.1026860116
  O         7.4572584998        7.3332382506        5.8750897380
  O         7.4657761525        3.2677843316       11.4068035267
  O        15.6209348627       11.1371337535        8.6498288549
  O        10.9430875054        2.6259692350        2.4621241377
  O         2.7927239865        6.4592220674        5.2327376169
  O         2.7848641258        2.3946433591       10.7709980085
  O        10.9561222232       10.2610793139        8.0203560521
  O         6.0591407293        3.6189982714        3.1771102178
  O        14.2267946983        7.4383940831        5.9535048870
  O        14.2348707475        3.3891558762       11.4973288007
  O         6.0701401253       11.2373578468        8.7254640913
  O        15.6271083056        2.0554561194        5.1185954015
  O         7.4591756962        5.8622020232        7.8833575628
  O         7.4712014552        1.7937032016       13.4393664027
  O        15.6149373285        9.6691119139       10.6619782019
  O        10.9534726982        1.1590226009        4.4725279948
  O         2.7933298595        4.9886874946        7.2435856630
  O         2.7800242556        0.9258487303       12.7951685946
  O        10.9535222365        8.7919122071       10.0319226402
  O         6.0580604367        2.1526542376        5.1925460262
  O        14.2260992853        5.9703312262        7.9620503122
  O        14.2369096759        1.9067092187       13.5027391503
  O         6.0713355048        9.7560656918       10.7427144003
  O         8.8547280909        4.8423403006        2.9019304445
  O         8.8648168942        0.7796736424        8.4359553318
  O         0.7029736246        8.6434742515        5.6641200101
  O         0.6808253116        4.5776119944       11.2094077829
  O        13.5366104634        5.7167527926        3.5427177747
  O        13.5294371924        1.6539155341        9.0781707855
  O         5.3668412163        9.5211283359        6.2902582589
  O         5.3802238096        5.4861735948       11.8462069147
  O         2.0895730671        4.7218930922        2.8134098881
  O         2.0962147579        0.6744945124        8.3572715541
  O        10.2523893744        8.5434614894        5.5863840268
  O        10.2627757683        4.4945022691       11.1329734369
  O         6.8547850560        6.4098845400        2.4760922821
  O         6.8746426945        2.3302577050        8.0206578420
  O        15.0309200675       10.1928559391        5.2430001536
  O        15.0133760941        6.1388892109       10.8109805589
  O         9.1473969025        7.3149643020        3.1576069192
  O         9.1630938453        3.2503068587        8.6932057690
  O         1.0032848059       11.1131174026        5.9244622579
  O         0.9974589164        7.0617789194       11.4670786947
  P         8.4295765615        6.1978332821        2.3175060003
  P         8.4007885275        2.1623578056        7.9014536336
  P         0.2492169605       10.0189523315        5.1086116399
  P         0.2787976332        5.9835730612       10.7028458444
 Ca        10.2411927091        0.1570406385        6.4350228551
 Ca         2.0601526092        8.0055715303        3.6588642821
 Ca         2.0883676099        3.9663473629        9.2331686931
 Ca        10.2344510427        7.7512147286       11.9813415630
  O        13.6643720110        4.6627171607        1.2058564587
  O        13.6471647089        0.5911769617        6.7615511329
  O         5.4881678218        8.4624641270        3.9701362856
  O         5.4890901403        4.4011460696        9.5244174571
  O        11.5221882708        5.7899130914        2.0468855761
  O        11.5151496428        1.7321162262        7.5949811339
  O         3.3560194774        9.5988167281        4.8057077244
  O         3.3558850468        5.5475794415       10.3505316163
  P        13.0529726078        5.7984387652        2.0235090903
  P        13.0668433523        1.7532661671        7.5993980180
  P         4.9045935162        9.6079145980        4.8352138508
  P         4.8920034728        5.5409204249       10.4102576782
 Ca         6.1409044887        0.2354299309        6.5015049546
 Ca        14.2956017946        8.0723908465        3.7025169829
 Ca        14.2992831199        4.0379400309        9.2740568802
 Ca         6.1396427908        7.8244747266       12.0339922475
  O         3.9602470420        6.4729415241        2.5201392579
  O         3.9582158617        2.3927594081        8.0676406953
  O        12.1224062093       10.2642563784        5.2960826328
  O        12.1341282371        6.2171766089       10.8611099307
  O         3.7952637388        4.3686152918        1.0171954925
  O         3.8047229393        0.3280538244        6.5610709107
  O        11.9736949094        8.2036298860        3.8030783850
  O        11.9729477417        4.1404556688        9.3416877262
  P         3.0138576908        5.4516247527        1.7617840462
  P         3.0139722376        1.4156849646        7.3608148891
  P        11.1803927886        9.2502279875        4.5611455160
  P        11.1512487043        5.1948624456       10.1405387127
 Ca        16.2513794577        5.1979767744        1.6064392999
 Ca        16.2678659923        1.1292080387        7.1452655473
 Ca         8.1209759294        8.9712054279        4.3752144549
 Ca         8.1011297440        4.9195725155        9.9374391329
  O         1.3096892307        1.9721788192        3.5005260744
  O         9.4478263893        5.7816272918        6.2904301884
  O         9.4663852674        1.6999860819       11.8347006866
  O         1.2924553696        9.5870562917        9.0688189461
  O        15.3257457461        1.0478272238        2.8433575518
  O         7.1583216026        4.8611533306        5.6181079884
  O         7.1742519691        0.7965799836       11.1561110107
  O        15.3196508029        8.6649630390        8.3871678634
  P        16.0434439157        2.1287950513        3.6112313442
  P         7.9218854060        5.9486906328        6.4106654123
  P         7.8970364063        1.9156519021       11.9922807449
  P        16.0733100920        9.7567500763        9.2062757256
 Ca         6.0911506353        0.3643853281        2.3366630274
 Ca        14.2345053083        4.1462253612        5.0809478355
 Ca        14.2529903906        0.1011663205       10.6520389781
 Ca         6.0825765757        7.9543881898        7.8797309807
  O        10.8348058018        3.7099616182        4.7873149041
  O         2.6760793939        7.5202938787        7.5495298596
  O         2.6582912854        3.4492688843       13.1051460115
  O        10.8351256489       11.3181293816       10.3410823096
  O        12.9671322922        2.5637433821        3.9614165374
  O         4.8076562772        6.3798703137        6.7158808280
  O         4.8003690000        2.3225348354       12.2659093429
  O        12.9678602661       10.1832818307        9.5054481592
  P        11.4303234844        2.5706290173        3.9021536497
  P         3.2561340202        6.3583426393        6.7139697478
  P         3.2709883185        2.3157858203       12.2918198173
  P        11.4178346609       10.1698453100        9.4777445040
 Ca        10.1794223507        0.2944022697        2.2846827863
 Ca         2.0230331789        4.0726571799        5.0407174943
 Ca         2.0372331065        0.0326136093       10.6051894882
 Ca        10.1821432858        7.8759525949        7.8134838345
  O         4.1874356341        1.8949941096        3.4486870715
  O        12.3645597587        5.7201089460        6.2450466398
  O        12.3621177541        1.6387545587       11.7906175980
  O         4.1991387028        9.5166202603        9.0143793539
  O         4.3498754565        3.9699805096        4.9686312075
  O        12.5182660034        7.7832225559        7.7510920275
  O        12.5280874806        3.7418336864       13.2935084011
  O         4.3474872550       11.5759529481       10.5082042306
  P         5.1738447776        2.9167919102        4.1736944578
  P        13.3092617574        6.6961922367        6.9518492246
  P        13.3078549725        2.6605662618       12.5537379371
  P         5.1434616002       10.5269534890        9.7526213193
 Ca         8.2225838269        3.1843431458        4.3647974177
 Ca         0.0549575308        6.9804763941        7.1687365811
 Ca         0.0710051561        2.9250110038       12.7137729998
 Ca         8.2025868310       10.8025772133        9.9408072322
 Ca        13.6115121233        0.2729485214        4.3824012023
 Ca         5.4494474566        8.0759326363        1.6143670007
 Ca         5.4424537553        4.0505452125        7.1675617887
 Ca        13.6134734726        7.8541001890        9.9286860284
 Ca         2.7289594284        2.3060843716        1.6203417144
 Ca        10.8812679819        6.0801611404        4.3538273673
 Ca        10.8748545806        2.0349409055        9.9510570443
 Ca         2.7178162000        9.8851381514        7.1668314516
 Ca         2.7088677136        0.2570804959        4.3848263331
 Ca        10.8809733086        4.0606362551        7.1445791921
 Ca        10.8748223936        0.0361290499       12.6989647173
 Ca         2.7096376226        7.8398623358        9.9321905723
 Ca         5.4487909713        6.0768291055        4.3620286834
 Ca         5.4422545404        2.0303965924        9.9579378787
 Ca        13.6040291371        9.8935416268        7.1463443753
 Ca        13.5932060312        5.8056636504       12.6944771877
  O         8.1587050167       23.0223460385        5.2975370797
  O         0.0083156740        3.4787241321        8.0858413591
  O        -0.0029670443       22.5070072356       13.8411852768
  O         8.1562686640        7.2988848996       10.8510018187
  H         8.1616061697        0.0842650563        4.5562805164
  H        -0.0047224893        3.8672362069        7.3681605538
  H         0.0002456419       23.0511049792       13.0994803156
  H         8.1641166963        7.6860443254       10.1382539484
  O         0.0088232801        5.5191916520        5.3057454734
  O         0.0139301064        1.4592784181       10.8556790156
  O         8.1584643183        9.3158961175        8.0746869605
  O         8.1650823367        5.0175868565       13.8509949575
  H        -0.0036419675        5.9160968548        4.5600460554
  H        -0.0078227663        1.8436330469       10.1406265068
  H         8.1620098762        9.7063391104        7.3657204082
  H         8.1597040821        5.5444737913       13.0957799919
  O         8.1574193235        1.0682520225        3.2254537786
  O        -0.0073710559        4.6228138441        6.2352440370
  O        -0.0094899166        0.5617946839       11.7952714853
  O         8.1649460116        8.4379779598        9.0154667541
  H         8.1612087837        0.5320422454        3.9935174651
  H         0.0036509618        4.2386003118        6.9473631756
  H         0.0047325791        0.1539930981       12.5443742195
  H         8.1597332453        8.0419518372        9.7214363637
  O         0.0038932845        6.9136514065        3.2406848754
  O        -0.0076156464        2.6046294263        9.0025306314
  O         8.1614381047       10.4545096327        6.2426060755
  O         8.1711053115        6.4014813840       11.8125752257
  H        -0.0008706676        6.3663716928        3.9909891283
  H         0.0016742237        2.2137659533        9.7186682357
  H         8.1611493730       10.0684284010        6.9508911110
  H         8.1563756314        5.9749642945       12.5410180972
  O         8.8480558740       17.9846356691        0.8722895359
  O         8.8629114495       13.9166419739        6.4284239562
  O         0.7085958742       21.7785765594        3.6455834924
  O         0.6962160661       17.7228853796        9.1918423342
  O        13.5432359990       18.8561393453        1.5135534467
  O        13.5299235473       14.7911088851        7.0689927979
  O         5.3715545808       22.6575735274        4.2777623467
  O         5.3702843502       18.6188217342        9.8388324884
  O         2.0864238878       17.8759423508        0.8054511955
  O         2.0967207683       13.8095409319        6.3492751115
  O        10.2493380787       21.6950372772        3.5670438611
  O        10.2626133140       17.6268326228        9.1209284436
  O        15.6431837066       15.2022866975        3.1026972866
  O         7.4571633222       19.0005256017        5.8749644536
  O         7.4658891872       14.9357698065       11.4067326634
  O        15.6208881955       22.8041430909        8.6497872902
  O        10.9431057507       14.2929484765        2.4621709512
  O         2.7927026201       18.1263134520        5.2327428320
  O         2.7848438012       14.0616075840       10.7709307705
  O        10.9561124641       21.9280833349        8.0203263250
  O         6.0591181478       15.2859815537        3.1770502683
  O        14.2268405742       19.1054135649        5.9534875741
  O        14.2348184278       15.0570991277       11.4973460920
  O         6.0702075850       22.9043522160        8.7254355113
  O        15.6271121470       13.7234918305        5.1186133354
  O         7.4592345494       17.5301934639        7.8833960938
  O         7.4710683520       13.4617585832       13.4394746033
  O        15.6149378197       21.3369967410       10.6619809628
  O        10.9535570659       12.8263685296        4.4724785039
  O         2.7934479335       16.6560529508        7.2435318358
  O         2.7800600138       12.5937166829       12.7952141374
  O        10.9536730942       20.4592579936       10.0318545847
  O         6.0581048350       13.8204810353        5.1927171423
  O        14.2261162895       17.6373603049        7.9620341009
  O        14.2368955038       13.5748040837       13.5027599177
  O         6.0713967384       21.4230355504       10.7426271857
  O         8.8547394575       16.5102936487        2.9019448120
  O         8.8647768831       12.4467400930        8.4358929851
  O         0.7029536878       20.3114644453        5.6641125282
  O         0.6806975420       16.2449554128       11.2092120544
  O        13.5365853391       17.3838279463        3.5426426779
  O        13.5294363111       13.3209229818        9.0781629243
  O         5.3668160836       21.1880888566        6.2902323957
  O         5.3802066315       17.1531550115       11.8462368292
  O         2.0896579071       16.3889403398        2.8132368759
  O         2.0962483355       12.3414638454        8.3572573617
  O        10.2523220632       20.2114816732        5.5864118670
  O        10.2628038511       16.1614541083       11.1329601796
  O         6.8547374962       18.0779240168        2.4761287404
  O         6.8746772119       13.9981801792        8.0206673140
  O        15.0309131835       21.8608161665        5.2429925043
  O        15.0134059652       17.8068925195       10.8109821169
  O         9.1475083477       18.9829172499        3.1576047376
  O         9.1631310865       14.9174491974        8.6932475918
  O         1.0033200121       22.7810333835        5.9244318876
  O         0.9975767230       18.7290707228       11.4672317826
  P         8.4293581594       17.8655580699        2.3178676661
  P         8.4007579212       13.8295043039        7.9014666894
  P         0.2492095958       21.6869337943        5.1086128493
  P         0.2787583437       17.6510600437       10.7028296113
 Ca        10.2413444662       11.8241478031        6.4350609323
 Ca         2.0601477667       19.6734599082        3.6588726649
 Ca         2.0885341254       15.6333936027        9.2331665714
 Ca        10.2344158765       19.4180981457       11.9811939894
  O        13.6642937485       16.3308461392        1.2057886394
  O        13.6471908966       12.2591453179        6.7614992440
  O         5.4881391293       20.1295087991        3.9701628084
  O         5.4890925651       16.0690931413        9.5243896981
  O        11.5221819608       17.4569086831        2.0467450901
  O        11.5151153666       13.4001545021        7.5949654379
  O         3.3560283061       21.2657635757        4.8056926588
  O         3.3558220217       17.2156319729       10.3505396332
  P        13.0530936780       17.4660803680        2.0236749366
  P        13.0667486164       13.4209049658        7.5994861223
  P         4.9047479753       21.2751919511        4.8351597166
  P         4.8919574482       17.2085762077       10.4103650499
 Ca         6.1409846279       11.9025644050        6.5015422898
 Ca        14.2956171676       19.7403275806        3.7025451920
 Ca        14.2992615270       15.7058338664        9.2740423219
 Ca         6.1396163530       19.4924340497       12.0340342063
  O         3.9603282915       18.1401405447        2.5202692807
  O         3.9580375060       14.0605733788        8.0675439399
  O        12.1225726694       21.9314204747        5.2961599984
  O        12.1341535311       17.8841398692       10.8610766967
  O         3.7952534642       16.0365743685        1.0171336841
  O         3.8047327193       11.9951650889        6.5611113586
  O        11.9736765191       19.8715924562        3.8030080153
  O        11.9729754381       15.8075583561        9.3416863086
  P         3.0137070753       17.1193096670        1.7618226506
  P         3.0140933566       13.0828511294        7.3608760658
  P        11.1803103344       20.9180689663        4.5611117107
  P        11.1512623455       16.8618359522       10.1406099481
 Ca        16.2513982089       16.8658964050        1.6064505683
 Ca        16.2679074338       12.7969752949        7.1450912215
 Ca         8.1209654494       20.6382231334        4.3750853134
 Ca         8.1010567102       16.5874169071        9.9374836927
  O         1.3096780280       13.6402001896        3.5005433224
  O         9.4478632385       17.4497087608        6.2904609763
  O         9.4664273930       13.3679458777       11.8347593328
  O         1.2924848090       21.2549947162        9.0688132644
  O        15.3258754762       12.7151443787        2.8435248681
  O         7.1584278439       16.5284674347        5.6182862918
  O         7.1742824803       12.4645621292       11.1562259305
  O        15.3196805021       20.3320543671        8.3872332764
  P        16.0433372525       13.7966167077        3.6110628978
  P         7.9218375321       17.6162014120        6.4106080793
  P         7.8970175016       13.5835740439       11.9920903796
  P        16.0732950001       21.4239469403        9.2062741356
 Ca         6.0911980295       12.0314466545        2.3366652792
 Ca        14.2345091431       15.8132612599        5.0809714894
 Ca        14.2530113045       11.7691022553       10.6519955478
 Ca         6.0828458703       19.6215332335        7.8798161310
  O        10.8348125249       15.3778973105        4.7872964347
  O         2.6760675380       19.1882458206        7.5494876998
  O         2.6581857994       15.1164933577       13.1052845122
  O        10.8351189030       22.9860536242       10.3410306538
  O        12.9671028044       14.2317107197        3.9614465591
  O         4.8076078928       18.0478677351        6.7158684908
  O         4.8003664997       13.9894942924       12.2659825521
  O        12.9678382301       21.8512884879        9.5054407179
  P        11.4302786409       14.2383187758        3.9021715792
  P         3.2560812096       18.0259666940        6.7140505020
  P         3.2710689520       13.9835667886       12.2916778377
  P        11.4177494729       21.8374993594        9.4778435394
 Ca        10.1794165403       11.9623724758        2.2847080884
 Ca         2.0229974416       15.7406287155        5.0407917895
 Ca         2.0372186581       11.7005664260       10.6052078642
 Ca        10.1823902118       19.5429537838        7.8135119975
  O         4.1874358762       13.5619482571        3.4487303800
  O        12.3645749164       17.3871257489        6.2450590864
  O        12.3623132544       13.3059421400       11.7907592890
  O         4.1989642376       21.1844639937        9.0142915710
  O         4.3499506925       15.6377042368        4.9685048204
  O        12.5182529833       19.4502970406        7.7510945604
  O        12.5280669916       15.4097293585       13.2935002028
  O         4.3474920943       23.2430280839       10.5082468320
  P         5.1737404287       14.5840853543        4.1736923436
  P        13.3092696636       18.3631572013        6.9518392604
  P        13.3077440312       14.3284227186       12.5536345587
  P         5.1435376219       22.1941262958        9.7526810653
 Ca         8.2225545341       14.8524097874        4.3647472730
 Ca         0.0549717333       18.6484271572        7.1687505219
 Ca         0.0709919456       14.5920778016       12.7137537932
 Ca         8.2026686423       22.4707238622        9.9409167338
 Ca        13.6115176277       11.9399932591        4.3823650978
 Ca         5.4495655867       19.7438315019        1.6143017362
 Ca         5.4424523546       15.7184927715        7.1675383256
 Ca        13.6134145237       19.5220457455        9.9287388672
 Ca         2.7289506406       13.9741420522        1.6203448576
 Ca        10.8812511742       17.7480786551        4.3538504402
 Ca        10.8748113505       13.7019496392        9.9510140120
 Ca         2.7178537056       21.5531217773        7.1668242921
 Ca         2.7088015278       11.9250646686        4.3848633396
 Ca        10.8809106031       15.7285334743        7.1445920630
 Ca        10.8747781340       11.7040700873       12.6988549629
 Ca         2.7096653053       19.5078068121        9.9321849663
 Ca         5.4488434614       17.7438302347        4.3619414793
 Ca         5.4422517759       13.6983602586        9.9578852169
 Ca        13.6040106261       21.5605865205        7.1463269747
 Ca        13.5932063360       17.4736765885       12.6944765810
  O         8.1570369846       11.3534636026        5.2966483252
  O         0.0083867442       15.1448496986        8.0854010245
  O        -0.0028952852       10.8388771440       13.8409086787
  O         8.1530036971       18.9673441362       10.8506166024
  H         8.1623308553       11.7534381935        4.5571221156
  H        -0.0048553990       15.5366152274        7.3693863244
  H         0.0001101368       11.3843625255       13.1001448422
  H         8.1657333720       19.3536671115       10.1384381019
  O         0.0090001396       17.1870776077        5.3053915211
  O         0.0139809696       13.1261748797       10.8541779306
  O         8.1572614697       20.9835336694        8.0760167859
  O         8.1654639815       16.6847454447       13.8508440408
  H        -0.0038494867       17.5847270030        4.5603334952
  H        -0.0078151760       13.5126074689       10.1417574109
  H         8.1620230890       21.3734742354        7.3657309559
  H         8.1592940494       17.2125244292       13.0959536197
  O         8.1574016954       12.7361230116        3.2254470668
  O        -0.0068293439       16.2905340524        6.2359298791
  O        -0.0094806554       12.2297016995       11.7960840480
  O         8.1667913990       20.1051024239        9.0138397588
  H         8.1612065236       12.2000814836        3.9935317826
  H         0.0033077313       15.9061882551        6.9468480929
  H         0.0047462189       11.8201560975       12.5437144333
  H         8.1584536315       19.7107122312        9.7217814857
  O         0.0037587595       18.5810132059        3.2403183278
  O        -0.0079347164       14.2731891011        9.0026393610
  O         8.1601211209       22.1207403534        6.2421219810
  O         8.1735740837       18.0691627730       11.8128184162
  H        -0.0009044897       18.0342443198        3.9913910631
  H         0.0017802787       13.8813511806        9.7185448809
  H         8.1616811216       21.7376786665        6.9515054463
  H         8.1557088368       17.6428678406       12.5410608281
  O         8.4374854435        9.2104746980       18.1942525474
  C         8.0360076309       10.4843547261       18.2277516140
  O         7.6388385331       11.7511088681       18.2627601458
     387
 i =        5, E =     -6914.9820376916
  O         8.8423799688        6.3214046706        0.8614417464
  O         8.8653288131        2.2499926878        6.4285354710
  O         0.7171009189       10.1101413047        3.6375393069
  O         0.6948122271        6.0554720203        9.1877810723
  O        13.5521783346        7.1928260538        1.5139434228
  O        13.5332178410        3.1273790149        7.0701469832
  O         5.3767484424       10.9925529157        4.2687191009
  O         5.3711925387        6.9609328355        9.8414208273
  O         2.0760471569        6.2153917797        0.8084537375
  O         2.0950472212        2.1424065325        6.3476305177
  O        10.2443540523       10.0387888239        3.5644159632
  O        10.2648183272        5.9666160873        9.1165951520
  O        15.6556993949        3.5435142425        3.1050459379
  O         7.4544142883        7.3389004569        5.8742581106
  O         7.4668353299        3.2667448255       11.3958472086
  O        15.6190678886       11.1414433144        8.6483660792
  O        10.9322860290        2.6120358469        2.4564668408
  O         2.7915357331        6.4624044555        5.2291346983
  O         2.7824881011        2.3914024845       10.7659995863
  O        10.9538461694       10.2611198591        8.0210719373
  O         6.0630731108        3.6189921302        3.1701303028
  O        14.2264800344        7.4433796123        5.9534198759
  O        14.2371467893        3.3949648002       11.4959353557
  O         6.0732901595       11.2370048176        8.7240205048
  O        15.6286994589        2.0543910432        5.1225808795
  O         7.4568179651        5.8621246075        7.8843410697
  O         7.4754504173        1.7872978501       13.4495894979
  O        15.6054401281        9.6678252508       10.6670411712
  O        10.9535659426        1.1503058803        4.4689792225
  O         2.7901110658        4.9851167244        7.2434601051
  O         2.7737658793        0.9228462360       12.7943342640
  O        10.9484831182        8.7889498492       10.0419311034
  O         6.0543275913        2.1479992466        5.1965449767
  O        14.2277675627        5.9706968206        7.9641092449
  O        14.2470699730        1.9014115784       13.4987568706
  O         6.0772136720        9.7440965305       10.7461478341
  O         8.8523996244        4.8424017350        2.9113937149
  O         8.8677827233        0.7741195697        8.4371774422
  O         0.7056562982        8.6421362499        5.6665868060
  O         0.6688070102        4.5679844139       11.2070056149
  O        13.5393854451        5.7210517164        3.5471457490
  O        13.5319026367        1.6512871222        9.0825246110
  O         5.3693226086        9.5221729808        6.2906132345
  O         5.3895719730        5.5006820184       11.8508723456
  O         2.0873741912        4.7149940471        2.8131642074
  O         2.0948441354        0.6697431456        8.3578767749
  O        10.2486366215        8.5439810805        5.5892657227
  O        10.2603655226        4.4940854716       11.1379391292
  O         6.8507989490        6.4224154328        2.4774377197
  O         6.8684163982        2.3313233203        8.0199730786
  O        15.0258182106       10.1943241336        5.2379531857
  O        15.0056277632        6.1427183988       10.8175312268
  O         9.1382352799        7.3176525484        3.1630226959
  O         9.1647617089        3.2534252299        8.6948524550
  O         1.0046573994       11.1156125361        5.9288583547
  O         1.0015544803        7.0756593238       11.4711150175
  P         8.4322042368        6.1959151384        2.3154574090
  P         8.4011523643        2.1621970003        7.8970772360
  P         0.2507902105       10.0175366505        5.1057235652
  P         0.2842366362        5.9867325102       10.7057332121
 Ca        10.2434860265        0.1623710905        6.4321874528
 Ca         2.0535910867        8.0011497704        3.6609382517
 Ca         2.0969553888        3.9727385543        9.2446460365
 Ca        10.2317262510        7.7376303441       11.9738388760
  O        13.6767942051        4.6658608249        1.2019653527
  O        13.6475004368        0.5856408943        6.7611125818
  O         5.4924838525        8.4642900518        3.9601762724
  O         5.4894289130        4.3995905210        9.5184519836
  O        11.5164195951        5.7876232988        2.0509253015
  O        11.5103919283        1.7292535133        7.5972718707
  O         3.3524945365        9.5993980284        4.7997473475
  O         3.3497235572        5.5506631915       10.3388970370
  P        13.0528186748        5.7983818488        2.0257565108
  P        13.0669653445        1.7539835728        7.6002559351
  P         4.9021777793        9.6074562380        4.8391671408
  P         4.8896435132        5.5400775340       10.4160380414
 Ca         6.1399829394        0.2402923301        6.5062907784
 Ca        14.2895657042        8.0613491619        3.6986361577
 Ca        14.2945559682        4.0411705161        9.2772155543
 Ca         6.1364375084        7.8096683760       12.0225116142
  O         3.9592297032        6.4851918040        2.5187837414
  O         3.9620621755        2.3959712517        8.0683721048
  O        12.1234054938       10.2687216467        5.2953312387
  O        12.1399574574        6.2285912199       10.8674929191
  O         3.7958849247        4.3515001278        1.0154998674
  O         3.8075556786        0.3238794865        6.5545802636
  O        11.9868890030        8.1998411142        3.8035893154
  O        11.9801632456        4.1397878710        9.3391442780
  P         3.0126754083        5.4475432858        1.7534314502
  P         3.0131823956        1.4148020819        7.3612532740
  P        11.1787084132        9.2514708179        4.5581023041
  P        11.1479093521        5.1911813923       10.1397985544
 Ca        16.2435371024        5.2016408596        1.6136723783
 Ca        16.2684154084        1.1239801873        7.1393296487
 Ca         8.1321743454        8.9580643941        4.3790163355
 Ca         8.0985397250        4.9105597294        9.9426832667
  O         1.3180327482        1.9680888554        3.4932319036
  O         9.4534144472        5.7812231868        6.2908443262
  O         9.4703490929        1.6853415779       11.8323940916
  O         1.2979858838        9.5862165926        9.0734141860
  O        15.3226192597        1.0332994330        2.8390351393
  O         7.1567185057        4.8572030032        5.6161976715
  O         7.1836166154        0.7939116076       11.1505757846
  O        15.3181239111        8.6625281202        8.3818937723
  P        16.0369109363        2.1266115220        3.6077192355
  P         7.9216606801        5.9490369277        6.4132341786
  P         7.8951376696        1.9193094639       11.9946183709
  P        16.0713046129        9.7561479111        9.2113279176
 Ca         6.0936948786        0.3772959638        2.3478930983
 Ca        14.2271508918        4.1418864072        5.0700338728
 Ca        14.2578215954        0.1033169343       10.6519034190
 Ca         6.0789915036        7.9492187359        7.8816317975
  O        10.8347530329        3.7117300576        4.7925754873
  O         2.6760679288        7.5261548405        7.5501458143
  O         2.6455576398        3.4473167496       13.1093144182
  O        10.8309373709       11.3165161178       10.3508367624
  O        12.9730252330        2.5615489047        3.9720455328
  O         4.8132832563        6.3832573117        6.7133637878
  O         4.8067503323        2.3256236193       12.2616999030
  O        12.9704591811       10.1844565305        9.5112551787
  P        11.4327567562        2.5706529509        3.8972799968
  P         3.2548279805        6.3583395719        6.7111822065
  P         3.2703880821        2.3155619844       12.2896308778
  P        11.4210497260       10.1727675453        9.4712813326
 Ca        10.1817404308        0.3097491782        2.2979879068
 Ca         2.0256455858        4.0716996363        5.0387210146
 Ca         2.0461572173        0.0409190485       10.6096945799
 Ca        10.1845675995        7.8708249434        7.8078958658
  O         4.1812439380        1.8834951982        3.4400051464
  O        12.3601159792        5.7172229434        6.2447745494
  O        12.3622480132        1.6247749505       11.7912970275
  O         4.1984451822        9.5132619852        9.0148675295
  O         4.3428845211        3.9694866132        4.9695618860
  O        12.5145473089        7.7871670173        7.7581863614
  O        12.5267038677        3.7586404230       13.2947065349
  O         4.3341588948       11.5790294076       10.5064811666
  P         5.1769359714        2.9195272929        4.1768794993
  P        13.3116220992        6.6979205776        6.9499661100
  P        13.3100439834        2.6657608781       12.5631432958
  P         5.1434162031       10.5280132303        9.7535897315
 Ca         8.2260329421        3.1909747216        4.3577750239
 Ca         0.0542347758        6.9844686561        7.1728227003
 Ca         0.0778455924        2.9254096596       12.7107372846
 Ca         8.1913656549       10.8164475703        9.9372321558
 Ca        13.6166949719        0.2901691708        4.3829822723
 Ca         5.4506329881        8.0498634148        1.6214475698
 Ca         5.4431777015        4.0513781941        7.1706224879
 Ca        13.6233707455        7.8507088518        9.9173277730
 Ca         2.7339581770        2.3331655316        1.6309136751
 Ca        10.8816205942        6.0813209744        4.3374997483
 Ca        10.8717704403        2.0433417955        9.9559482045
 Ca         2.7157233450        9.8856912270        7.1698337392
 Ca         2.7001925297        0.2597157282        4.3974202799
 Ca        10.8803264945        4.0598754354        7.1418048060
 Ca        10.8741316285        0.0642754056       12.6929997996
 Ca         2.7033163309        7.8227548009        9.9328108885
 Ca         5.4520035059        6.0693148763        4.3577471050
 Ca         5.4421769600        2.0293646781        9.9741311497
 Ca        13.6061255471        9.8922447178        7.1434503807
 Ca        13.5885457641        5.7800783224       12.6862447472
  O         8.1542360526       23.0779884536        5.3247216073
  O         0.0136015075        3.5027527463        8.1700391211
  O        -0.0037600885       22.4794000488       13.8796979954
  O         8.1561151272        7.3222756962       10.9359217423
  H         8.1633731360        0.1283154823        4.4343650958
  H        -0.0119897145        3.8139059894        7.3488406944
  H        -0.0002241962       23.0021574508       13.1585477510
  H         8.1670062023        7.6408266644       10.1106573802
  O         0.0159911676        5.5770797972        5.3447872471
  O         0.0206491713        1.4780612037       10.9436012376
  O         8.1576115146        9.3397739398        8.1456402051
  O         8.1674134115        4.9966134048       13.8961567978
  H        -0.0085547042        5.9538076614        4.4411198048
  H        -0.0173433173        1.7955949181       10.1163383415
  H         8.1634461203        9.6584239766        7.3424583029
  H         8.1591524969        5.4903638367       13.1548278378
  O         8.1537150313        1.0863045294        3.1698607838
  O        -0.0123072227        4.5955632674        6.1511159697
  O        -0.0179271188        0.5136289687       11.7517209182
  O         8.1698553083        8.4181293228        8.9452846978
  H         8.1615812602        0.5755866179        3.9437582048
  H         0.0101089850        4.2845012230        6.9770582760
  H         0.0102003788        0.1208125650       12.6520605333
  H         8.1550259467        8.0861585979        9.7397735927
  O         0.0051847822        6.9428157440        3.1952305308
  O        -0.0136984884        2.5788658222        8.9183885280
  O         8.1616070870       10.4299423304        6.1669621016
  O         8.1806310364        6.3662438335       11.7939887833
  H        -0.0014232990        6.4067130019        3.9413423476
  H         0.0093429026        2.2674662922        9.7371175371
  H         8.1613022199       10.1112075569        6.9821761208
  H         8.1501020957        5.9267692841       12.6467890144
  O         8.8423569503       17.9897578252        0.8613897266
  O         8.8653393706       13.9177649564        6.4285207953
  O         0.7171006921       21.7781288473        3.6375516616
  O         0.6947711739       17.7233385860        9.1878319594
  O        13.5521804897       18.8609691800        1.5141686773
  O        13.5334090717       14.7947970182        7.0701301353
  O         5.3766082885       22.6601441504        4.2689353764
  O         5.3712568760       18.6283354148        9.8413492085
  O         2.0760556197       17.8835529815        0.8085715103
  O         2.0950350754       13.8092683779        6.3476325774
  O        10.2443551124       21.7068030441        3.5643877578
  O        10.2647934729       17.6335682388        9.1165654959
  O        15.6557027322       15.2113796541        3.1050233071
  O         7.4542793672       19.0062140964        5.8741549324
  O         7.4670157346       14.9346659804       11.3957240149
  O        15.6189957051       22.8084660241        8.6483249305
  O        10.9323122871       14.2789193491        2.4566026999
  O         2.7915489261       18.1295392139        5.2292012893
  O         2.7824555296       14.0584314861       10.7659000600
  O        10.9537573468       21.9280602047        8.0210218640
  O         6.0630566008       15.2859759430        3.1700264475
  O        14.2264794917       19.1104193788        5.9534587174
  O        14.2370680852       15.0628880623       11.4959023832
  O         6.0734129636       22.9039848918        8.7239695994
  O        15.6287061428       13.7224477274        5.1225871146
  O         7.4568921016       17.5301516468        7.8843931829
  O         7.4752477658       13.4555153470       13.4495625642
  O        15.6054576512       21.3356790863       10.6670851406
  O        10.9536303390       12.8177060471        4.4689828474
  O         2.7902638252       16.6525244980        7.2434648239
  O         2.7739117746       12.5906885692       12.7944607715
  O        10.9485897144       20.4562920173       10.0418449941
  O         6.0543652775       13.8157965839        5.1967738824
  O        14.2278057928       17.6376837417        7.9641438569
  O        14.2470175288       13.5696257331       13.4987812677
  O         6.0773135079       21.4110001632       10.7459723702
  O         8.8524707596       16.5103311497        2.9114227111
  O         8.8676903192       12.4412745053        8.4370863582
  O         0.7056299955       20.3101519588        5.6665855138
  O         0.6687002451       16.2353402064       11.2067447484
  O        13.5392622228       17.3881550139        3.5469933330
  O        13.5319154050       13.3183295150        9.0825266431
  O         5.3692983273       21.1890485675        6.2906406906
  O         5.3895806834       17.1676738239       11.8509462638
  O         2.0874804814       16.3820644503        2.8129616002
  O         2.0949154332       12.3367660509        8.3578183124
  O        10.2485483978       20.2119942335        5.5893332865
  O        10.2604390054       16.1609618364       11.1379044126
  O         6.8508397033       18.0904632437        2.4775624849
  O         6.8684469058       13.9992132225        8.0199877085
  O        15.0257976993       21.8622564580        5.2379458083
  O        15.0057035545       17.8106943919       10.8175394877
  O         9.1385583118       18.9855244301        3.1630148560
  O         9.1648027629       14.9206451222        8.6949055191
  O         1.0047217181       22.7835120965        5.9288275576
  O         1.0016679889       18.7429723186       11.4713213319
  P         8.4317549881       17.8634077126        2.3156846248
  P         8.4011449529       13.8293704797        7.8971368017
  P         0.2507902275       21.6854706471        5.1056924855
  P         0.2841474790       17.6542584144       10.7056546315
 Ca        10.2436539212       11.8294642295        6.4322583230
 Ca         2.0535218057       19.6689448490        3.6609462489
 Ca         2.0973028234       15.6398113050        9.2447518840
 Ca        10.2315468461       19.4045049317       11.9736323301
  O        13.6765841285       16.3339616508        1.2018912096
  O        13.6475378328       12.2535741123        6.7610272321
  O         5.4924409440       20.1313362434        3.9602491367
  O         5.4894298863       16.0674830477        9.5183938139
  O        11.5164806586       17.4546453765        2.0507281777
  O        11.5103501775       13.3973268984        7.5972486026
  O         3.3525677254       21.2662922789        4.7997335691
  O         3.3496169224       17.2187422398       10.3388955690
  P        13.0530677276       17.4659391083        2.0259743620
  P        13.0668509116       13.4215423008        7.6003088302
  P         4.9023244129       21.2747580965        4.8390673341
  P         4.8896099112       17.2076889996       10.4161205840
 Ca         6.1400188586       11.9074687863        6.5063624444
 Ca        14.2896544180       19.7292607801        3.6986607991
 Ca        14.2943683395       15.7090725073        9.2772591797
 Ca         6.1364736169       19.4776400948       12.0226343693
  O         3.9592996567       18.1525025710        2.5189594885
  O         3.9618377025       14.0637523626        8.0682585548
  O        12.1236102381       21.9359422211        5.2954109827
  O        12.1400271519       17.8956188588       10.8674884760
  O         3.7958820585       16.0194198412        1.0153896807
  O         3.8075914947       11.9910866843        6.5546523441
  O        11.9868227852       19.8677523796        3.8034970666
  O        11.9802388331       15.8069636702        9.3391284218
  P         3.0125226292       17.1151785421        1.7534707129
  P         3.0132746757       13.0819563978        7.3613028849
  P        11.1786623890       20.9193152043        4.5580863417
  P        11.1478851276       16.8580958405       10.1399066499
 Ca        16.2436277448       16.8695945015        1.6137211436
 Ca        16.2684635855       12.7915637890        7.1390249839
 Ca         8.1321046538       20.6252730411        4.3788246103
 Ca         8.0984591747       16.5784074183        9.9428293062
  O         1.3180119098       13.6361108117        3.4932693631
  O         9.4534441986       17.4493543521        6.2908877918
  O         9.4704224793       13.3532056435       11.8323512792
  O         1.2980142897       21.2541235096        9.0734306987
  O        15.3227592008       12.7007034825        2.8392557761
  O         7.1568379624       16.5245836332        5.6163817299
  O         7.1836418445       12.4618221259       11.1508205040
  O        15.3181545247       20.3296919449        8.3820388825
  P        16.0368047497       13.7944507033        3.6075534550
  P         7.9216480148       17.6165355795        6.4131712167
  P         7.8951119572       13.5873443428       11.9946611682
  P        16.0712919879       21.4234048198        9.2112708318
 Ca         6.0937602687       12.0444020839        2.3478863704
 Ca        14.2272966807       15.8089767052        5.0700744924
 Ca        14.2580539460       11.7712210146       10.6518865483
 Ca         6.0790348773       19.6162905230        7.8816183362
  O        10.8347534259       15.3796302842        4.7925665162
  O         2.6760758588       19.1940025075        7.5500792057
  O         2.6453947708       15.1146937265       13.1095214370
  O        10.8309130517       22.9843259623       10.3506788519
  O        12.9729847807       14.2295039298        3.9721178443
  O         4.8132844234       18.0512379619        6.7133821317
  O         4.8067409662       13.9924970531       12.2617508522
  O        12.9704040745       21.8524391510        9.5112004275
  P        11.4327121936       14.2383174677        3.8971311662
  P         3.2547011582       18.0259856944        6.7111979007
  P         3.2704977573       13.9831594007       12.2893618545
  P        11.4210269501       21.8405144886        9.4714778591
 Ca        10.1817730577       11.9776922516        2.2979960579
 Ca         2.0254765548       15.7396977162        5.0387833613
 Ca         2.0458679124       11.7088786381       10.6097552099
 Ca        10.1850506482       19.5377281713        7.8078228206
  O         4.1812648527       13.5504320555        3.4401173050
  O        12.3601211400       17.3842268303        6.2447924846
  O        12.3624791103       13.2920316598       11.7914765900
  O         4.1982043003       21.1810288800        9.0147608150
  O         4.3429698706       15.6371394935        4.9694455982
  O        12.5145243566       19.4542755276        7.7582128223
  O        12.5266663676       15.4265072807       13.2946664436
  O         4.3341847961       23.2461571772       10.5065226747
  P         5.1768232834       14.5868017409        4.1768526959
  P        13.3116745180       18.3649560411        6.9498732520
  P        13.3099589134       14.3335737300       12.5631129683
  P         5.1434797679       22.1953005038        9.7536827650
 Ca         8.2259937802       14.8590662565        4.3577266985
 Ca         0.0542852496       18.6523219318        7.1726729103
 Ca         0.0778151615       14.5923201950       12.7106701486
 Ca         8.1913962518       22.4848720025        9.9375685552
 Ca        13.6167028233       11.9572536701        4.3829161903
 Ca         5.4508574838       19.7177829804        1.6212679703
 Ca         5.4431625168       15.7192731632        7.1705811768
 Ca        13.6232767510       19.5186622170        9.9173755326
 Ca         2.7339497164       14.0012748422        1.6308877945
 Ca        10.8815687401       17.7491501522        4.3375685603
 Ca        10.8717047628       13.7103567128        9.9558718382
 Ca         2.7157776066       21.5536710865        7.1697970886
 Ca         2.7000835355       11.9277024944        4.3974996643
 Ca        10.8802411412       15.7276992486        7.1418077127
 Ca        10.8740376544       11.7321908422       12.6928116308
 Ca         2.7033856703       19.4906916479        9.9327746226
 Ca         5.4520375628       17.7363529733        4.3575869010
 Ca         5.4421589154       13.6973338720        9.9740979498
 Ca        13.6061077036       21.5593369546        7.1434008658
 Ca        13.5885591073       17.4480263023       12.6862572290
  O         8.1515979921       11.4077126951        5.3234566216
  O         0.0138279103       15.1664377467        8.1707982767
  O        -0.0036764082       10.8104581766       13.8791853747
  O         8.1510156034       18.9921256484       10.9344861637
  H         8.1649163423       11.7982306013        4.4359176033
  H        -0.0121713198       15.4842069042        7.3518528600
  H        -0.0004046832       11.3374318403       13.1607170889
  H         8.1712576598       19.3083484576       10.1101931322
  O         0.0162546804       17.2451506064        5.3435271263
  O         0.0211535305       13.1450576872       10.9393690157
  O         8.1555761114       21.0073649288        8.1487070937
  O         8.1680739097       16.6636397910       13.8962646006
  H        -0.0088507291       17.6231145955        4.4412804965
  H        -0.0175066724       13.4658504529       10.1188388920
  H         8.1637144505       21.3244828603        7.3422071956
  H         8.1583030873       17.1585004417       13.1547379568
  O         8.1537388343       12.7539896449        3.1702344303
  O        -0.0114495048       16.2622857855        6.1533840593
  O        -0.0177745206       12.1803030077       11.7541329515
  O         8.1727802608       20.0851352131        8.9415053517
  H         8.1614959422       12.2437278264        3.9432934466
  H         0.0093690491       15.9516767092        6.9750876616
  H         0.0099796521       11.7856498161       12.6508567761
  H         8.1516005883       19.7561315988        9.7403247983
  O         0.0048984661       18.6103497918        3.1944841814
  O        -0.0143146403       14.2497057309        8.9167529428
  O         8.1593294628       22.0941391526        6.1666931260
  O         8.1849336693       18.0329163479       11.7955947610
  H        -0.0014790483       18.0744458519        3.9418954788
  H         0.0095570654       13.9350554781        9.7359873664
  H         8.1626624648       21.7816781569        6.9837530948
  H         8.1484469060       17.5943803739       12.6468886199
  O         8.4029200235        9.3195287385       18.1964537871
  C         8.0355372469       10.4852529833       18.2284971830
  O         7.6736571192       11.6416653879       18.2611258436
     387
 i =        6, E =     -6917.2349414877
  O         8.8152511757        6.3426804790        0.8168813931
  O         8.8769689547        2.2557446449        6.4283806173
  O         0.7534671292       10.1078673730        3.6067262768
  O         0.6886974966        6.0574599928        9.1702103808
  O        13.5915211586        7.2137388221        1.5183270529
  O        13.5498116451        3.1428854240        7.0761849858
  O         5.3975761808       11.0020188610        4.2328404916
  O         5.3760279338        7.0012767022        9.8517367156
  O         2.0303567331        6.2473046167        0.8236919722
  O         2.0856678471        2.1420527882        6.3415860701
  O        10.2228179973       10.0885858376        3.5551930517
  O        10.2741939627        5.9964167320        9.0982545911
  O        15.7104811639        3.5831601088        3.1181342137
  O         7.4423200305        7.3636437102        5.8738757008
  O         7.4724595463        3.2628951590       11.3465518020
  O        15.6114140419       11.1611775408        8.6428945502
  O        10.8878323617        2.5501058826        2.4349991326
  O         2.7859441571        6.4756752897        5.2142184303
  O         2.7692650280        2.3774846187       10.7385467981
  O        10.9428436205       10.2611083392        8.0214683447
  O         6.0780540341        3.6174403609        3.1425976094
  O        14.2254770367        7.4649253461        5.9537899595
  O        14.2475965087        3.4202715504       11.4889688605
  O         6.0875364173       11.2345955939        8.7176034688
  O        15.6353125323        2.0493466292        5.1406529767
  O         7.4459918217        5.8622778495        7.8900627906
  O         7.4966582313        1.7599654926       13.4907069604
  O        15.5639481623        9.6618353583       10.6862751367
  O        10.9542136771        1.1125528185        4.4544778398
  O         2.7749340317        4.9699424389        7.2425435968
  O         2.7440858985        0.9093805243       12.7877746380
  O        10.9268443426        8.7782130131       10.0824178027
  O         6.0382883650        2.1274871750        5.2143787579
  O        14.2366272036        5.9715318833        7.9728670813
  O        14.2924475590        1.8788275378       13.4795807555
  O         6.1027508189        9.6923879757       10.7576948422
  O         8.8415620462        4.8423278462        2.9536870866
  O         8.8804060172        0.7497049219        8.4402764884
  O         0.7171979251        8.6357565461        5.6778419693
  O         0.6158409465        4.5256913238       11.1934511162
  O        13.5539200620        5.7401446479        3.5708282905
  O        13.5438165900        1.6404442477        9.1008400456
  O         5.3804807276        9.5265938271        6.2944738118
  O         5.4282404484        5.5641743257       11.8685931937
  O         2.0770341972        4.6852686144        2.8132616876
  O         2.0880354389        0.6494803269        8.3600019337
  O        10.2325567820        8.5467378655        5.6022388275
  O        10.2515555857        4.4932739020       11.1576086194
  O         6.8326493276        6.4763070202        2.4844262760
  O         6.8442098779        2.3354146810        8.0163970042
  O        15.0058716226       10.2005778569        5.2154777708
  O        14.9753237653        6.1586939071       10.8449918730
  O         9.0998906716        7.3307392556        3.1887525008
  O         9.1716147271        3.2655360016        8.7006035727
  O         1.0095094013       11.1255416123        5.9482668402
  O         1.0173955348        7.1317550861       11.4854163541
  P         8.4452049452        6.1875911927        2.2997342417
  P         8.4007298733        2.1629848205        7.8810559933
  P         0.2570044430       10.0130594030        5.0900100474
  P         0.3065876494        6.0046964680       10.7223286434
 Ca        10.2549313089        0.1865430207        6.4187316487
 Ca         2.0275804201        7.9835046893        3.6686656363
 Ca         2.1408912078        4.0020603030        9.2975637927
 Ca        10.2230687055        7.6798337778       11.9426875544
  O        13.7322006790        4.6816346114        1.1874987608
  O        13.6486698370        0.5635659270        6.7609082704
  O         5.5099854485        8.4740963097        3.9209572515
  O         5.4894687224        4.3954550145        9.4942199415
  O        11.4956831561        5.7770598769        2.0697451547
  O        11.4928109309        1.7169542105        7.6073204140
  O         3.3373305038        9.6018050886        4.7756944637
  O         3.3247647163        5.5646823227       10.2890859129
  P        13.0486559669        5.7972080447        2.0279464496
  P        13.0655098096        1.7546230651        7.6031727467
  P         4.8940231236        9.6057166437        4.8491190346
  P         4.8803757408        5.5340743628       10.4415011947
 Ca         6.1340085578        0.2629287396        6.5261944081
 Ca        14.2606977180        8.0136067897        3.6793078597
 Ca        14.2683049706        4.0579148465        9.2934228982
 Ca         6.1197512264        7.7458253686       11.9749265600
  O         3.9521270680        6.5350969830        2.5121752300
  O         3.9765128123        2.4084706236        8.0701583884
  O        12.1274818425       10.2883704432        5.2926008211
  O        12.1630428165        6.2751757074       10.8938483341
  O         3.7964939056        4.2807628667        1.0102992722
  O         3.8183749447        0.3077739891        6.5278977488
  O        12.0406226699        8.1871182710        3.8090553725
  O        12.0113467439        4.1376801383        9.3286382702
  P         3.0097719667        5.4306145367        1.7147276948
  P         3.0144160872        1.4107108285        7.3637113471
  P        11.1741675704        9.2547263882        4.5414791340
  P        11.1352742432        5.1769768729       10.1395258236
 Ca        16.2075356655        5.2167969872        1.6414018959
 Ca        16.2708275612        1.0937207697        7.1075025081
 Ca         8.1805070742        8.8972243990        4.3898786884
 Ca         8.0863125920        4.8659844685        9.9656786379
  O         1.3502263145        1.9503777471        3.4628694642
  O         9.4751449755        5.7801694839        6.2936737607
  O         9.4893095471        1.6233521256       11.8214917727
  O         1.3192995606        9.5826728292        9.0940878990
  O        15.3105545460        0.9745888956        2.8233189065
  O         7.1506116781        4.8423035852        5.6101073019
  O         7.2229579862        0.7803348528       11.1247431655
  O        15.3125420116        8.6534739700        8.3589078816
  P        16.0110440385        2.1133106462        3.5880378404
  P         7.9220934081        5.9484802653        6.4205923999
  P         7.8844392323        1.9354386480       12.0110600646
  P        16.0638210756        9.7519757980        9.2344701409
 Ca         6.1025537235        0.4331438430        2.3945519237
 Ca        14.1912934808        4.1227698910        5.0195598354
 Ca        14.2742954116        0.1100681173       10.6514428366
 Ca         6.0582642879        7.9247692135        7.8882544864
  O        10.8357854135        3.7173612518        4.8142309996
  O         2.6763747098        7.5495226322        7.5518142643
  O         2.5883198644        3.4368603749       13.1248338760
  O        10.8143058599       11.3076652073       10.3893992827
  O        12.9969895213        2.5517602394        4.0174801294
  O         4.8347180049        6.3978815069        6.7028421177
  O         4.8295925819        2.3399931226       12.2413185788
  O        12.9820610196       10.1899113110        9.5348728263
  P        11.4420277662        2.5723399132        3.8742897958
  P         3.2511737196        6.3603135723        6.6995423747
  P         3.2729305822        2.3155508587       12.2887551161
  P        11.4324034569       10.1848510737        9.4516357382
 Ca        10.1928316556        0.3767055139        2.3544516994
 Ca         2.0403570201        4.0662976733        5.0270444546
 Ca         2.0896926626        0.0762453662       10.6313708158
 Ca        10.2006006460        7.8461489583        7.7818328528
  O         4.1569952498        1.8360549378        3.4050046082
  O        12.3430228644        5.7063882235        6.2455516812
  O        12.3663960639        1.5677602676       11.7956629670
  O         4.1958371349        9.4979743786        9.0166375009
  O         4.3123436912        3.9675241321        4.9739897829
  O        12.4994576914        7.8023100683        7.7877524719
  O        12.5227029179        3.8295251972       13.2978211936
  O         4.2796680721       11.5887605436       10.4961896758
  P         5.1889645934        2.9294889937        4.1850606764
  P        13.3169073501        6.7051879447        6.9407882547
  P        13.3162660268        2.6868901582       12.6049461946
  P         5.1408523207       10.5339594753        9.7616605601
 Ca         8.2414318063        3.2215001772        4.3255958815
 Ca         0.0512933490        7.0070639343        7.1930783630
 Ca         0.1106181409        2.9315161930       12.7040491113
 Ca         8.1428195498       10.8840116466        9.9292898708
 Ca        13.6391132709        0.3649370339        4.3846650592
 Ca         5.4570044574        7.9368792045        1.6508378108
 Ca         5.4468425867        4.0546238957        7.1838492097
 Ca        13.6659724928        7.8362238596        9.8694325160
 Ca         2.7566062386        2.4505922782        1.6756409835
 Ca        10.8824824206        6.0861620600        4.2631304745
 Ca        10.8568133667        2.0793787633        9.9790775655
 Ca         2.7070100486        9.8880578784        7.1827686777
 Ca         2.6629858015        0.2713418164        4.4500734274
 Ca        10.8767714708        4.0566489038        7.1288885890
 Ca        10.8684887012        0.1854553836       12.6685185329
 Ca         2.6759047234        7.7487632274        9.9358576935
 Ca         5.4668700437        6.0369288592        4.3367452302
 Ca         5.4427282873        2.0252539621       10.0480832624
 Ca        13.6148936426        9.8864885781        7.1300539401
 Ca        13.5679519299        5.6692707117       12.6509028210
  O         8.1360033191       23.3279884536        5.4459720726
  O         0.0413876678        3.6875424623        8.4200391211
  O        -0.0082496686       22.3442449239       14.0673291334
  O         8.1539953993        7.4773938661       11.1859217423
  H         8.1708782347        0.2772654561        4.1843650958
  H        -0.0476259662        3.5639059894        7.2370784710
  H        -0.0021237737       22.7953222083       13.3948427010
  H         8.1814658099        7.4141694940        9.9784767335
  O         0.0484574073        5.8270797972        5.5239346308
  O         0.0540374470        1.6077047891       11.1936012376
  O         8.1518617838        9.5044649872        8.3956402051
  O         8.1776919747        4.8949833252       14.1156855462
  H        -0.0299423714        6.0770588282        4.1911198048
  H        -0.0625961532        1.5618147852        9.9969090488
  H         8.1701931891        9.4185838517        7.2128812508
  H         8.1577317553        5.2554891071       13.3916731288
  O         8.1376075228        1.1781158301        2.9198607838
  O        -0.0362405345        4.4325895265        5.9011159697
  O        -0.0562482152        0.2705498108       11.5595448698
  O         8.1927948182        8.2749254594        8.6952846978
  H         8.1631363300        0.7778208319        3.7272787407
  H         0.0415018763        4.5138166608        7.1165904960
  H         0.0341706701        0.0069607411       12.9020605333
  H         8.1315086437        8.3009157498        9.8566097186
  O         0.0104700197        7.0805861289        2.9891257070
  O        -0.0448668675        2.3897359539        8.6683885280
  O         8.1632867482       10.2780335556        5.9169621016
  O         8.2235360144        6.1773314098       11.7229047579
  H        -0.0032749371        6.5932408540        3.7248217034
  H         0.0472864383        2.5174662922        9.8470698459
  H         8.1614535579       10.3351445304        7.1237970611
  H         8.1216717253        5.7511329010       12.8967890144
  O         8.8149717968       18.0116266638        0.8172791150
  O         8.8769462064       13.9231477869        6.4282125183
  O         0.7534791036       21.7759408719        3.6068654718
  O         0.6885258676       17.7249701527        9.1702927776
  O        13.5915214263       18.8819261909        1.5190734309
  O        13.5502985770       14.8107252431        7.0763644098
  O         5.3974756469       22.6692194850        4.2332260524
  O         5.3759262312       18.6690547209        9.8516020000
  O         2.0305665813       17.9154014008        0.8240689988
  O         2.0856067542       13.8087727296        6.3415995697
  O        10.2229524160       21.7562997502        3.5551244924
  O        10.2741585681       17.6633375848        9.0981936394
  O        15.7104557861       15.2505816073        3.1179902086
  O         7.4420216809       19.0311331912        5.8739427647
  O         7.4728296038       14.9306393593       11.3462508021
  O        15.6112066248       22.8283544784        8.6430185343
  O        10.8878489608       14.2167090162        2.4353475114
  O         2.7861799164       18.1429653174        5.2146104650
  O         2.7693439352       14.0448412018       10.7383714078
  O        10.9424026105       21.9277540808        8.0213836148
  O         6.0780273427       15.2843665134        3.1422874146
  O        14.2252613896       19.1321001707        5.9541366855
  O        14.2472714546       15.0882662180       11.4888027625
  O         6.0879302738       22.9015026595        8.7174570983
  O        15.6353552120       13.7174534307        5.1406221507
  O         7.4461352986       17.5304868636        7.8901778078
  O         7.4962997704       13.4288592383       13.4901236054
  O        15.5640240019       21.3297165335       10.6866157226
  O        10.9541771179       12.7802176859        4.4546347508
  O         2.7752237405       16.6375177460        7.2428334434
  O         2.7448532639       12.5770966755       12.7883426818
  O        10.9268353156       20.4456069843       10.0821663875
  O         6.0382785367       13.7951592672        5.2147717991
  O        14.2367686266       17.6383460220        7.9731243159
  O        14.2921175459       13.5476927637       13.4797343679
  O         6.1030040287       21.3591054953       10.7570966382
  O         8.8418029332       16.5100470689        2.9538946282
  O         8.8800938741       12.4173196887        8.4400484341
  O         0.7171425280       20.3039287981        5.6779709756
  O         0.6157554236       16.1933350032       11.1927885538
  O        13.5534108656       17.4073355556        3.5705419384
  O        13.5438105039       13.3077266517        9.1006923367
  O         5.3804581297       21.1931016172        6.2947120935
  O         5.4282839090       17.2312702769       11.8688143644
  O         2.0773128868       16.3522879098        2.8128850173
  O         2.0882871526       12.3168050271        8.3596707727
  O        10.2323112078       20.2146683996        5.6025704414
  O        10.2518940967       16.1597610269       11.1574929307
  O         6.8328818280       18.1444363231        2.4848696545
  O         6.8442168539       14.0031883288        8.0164236542
  O        15.0057692807       21.8684035099        5.2155254150
  O        14.9754915617       17.8265874259       10.8450661093
  O         9.1009025526       18.9983128593        3.1885358082
  O         9.1716703854       14.9331059783        8.7007004553
  O         1.0097195599       22.7934112185        5.9482958630
  O         1.0174945194       18.7992353626       11.4857986684
  P         8.4439123949       17.8542452953        2.2995951815
  P         8.4008298357       13.8302133032        7.8813582106
  P         0.2570560777       21.6807543025        5.0897625360
  P         0.3064313104       17.6721033053       10.7221607137
 Ca        10.2551604053       11.8535364561        6.4190868517
 Ca         2.0271395792       19.6508730881        3.6685386360
 Ca         2.1420475983       15.6692495204        9.2982376320
 Ca        10.2216958360       19.3465550282       11.9418624827
  O        13.7316328930       16.3496059706        1.1872539323
  O        13.6487513260       12.2313354685        6.7606031953
  O         5.5100254792       20.1412465417        3.9211305695
  O         5.4894558060       16.0630989374        9.4940409472
  O        11.4959901007       17.4441330024        2.0693589441
  O        11.4926994015       13.3851871941        7.6072156561
  O         3.3377330995       21.2685158079        4.7757603136
  O         3.3244747878       17.2328814002       10.2890535657
  P        13.0492714407       17.4644889117        2.0283531641
  P        13.0653705014       13.4217963134        7.6032932336
  P         4.8939525243       21.2730204411        4.8489530082
  P         4.8804833364       17.2015632845       10.4415763908
 Ca         6.1338364913       11.9302128639        6.5264983847
 Ca        14.2612244003       19.6813010167        3.6792492448
 Ca        14.2673635235       15.7257489648        9.2938625360
 Ca         6.1202172202       19.4136702332       11.9752249523
  O         3.9522251034       18.2027059135        2.5125125089
  O         3.9760938468       14.0761361163        8.0699598043
  O        12.1278751173       21.9558521204        5.2927653715
  O        12.1633129467       17.9425622974       10.8941238680
  O         3.7965872504       15.9482517735        1.0098831025
  O         3.8185246071       11.9754102196        6.5280586860
  O        12.0403078925       19.8548108252        3.8089227219
  O        12.0116223851       15.8052276987        9.3285742465
  P         3.0094607156       17.0984422396        1.7147985891
  P         3.0144064991       13.0777209048        7.3638368681
  P        11.1742799186       20.9226316384        4.5413426222
  P        11.1349964548       16.8435634398       10.1397525887
 Ca        16.2078047785       16.8850541375        1.6416925619
 Ca        16.2708857460       12.7603411117        7.1067744009
 Ca         8.1802819955       20.5651702509        4.3895199336
 Ca         8.0862245703       16.5340997146        9.9664442597
  O         1.3503044502       13.6183734068        3.4628799975
  O         9.4751371807       17.4485332367        6.2937875923
  O         9.4893270821       13.2909331176       11.8211324013
  O         1.3192501883       21.2504922346        9.0942601723
  O        15.3107485822       12.6422792109        2.8237384652
  O         7.1507992949       16.5099819730        5.6103423241
  O         7.2229993529       12.4481171961       11.1254073986
  O        15.3125961364       20.3210296129        8.3594899289
  P        16.0107896714       13.7814352933        3.5878764798
  P         7.9222130693       17.6158500328        6.4204988407
  P         7.8843722815       13.6035070525       12.0122215234
  P        16.0639160364       21.4193278320        9.2340139945
 Ca         6.1026272978       12.1001995490        2.3948188042
 Ca        14.1921081515       15.7902627984        5.0195332327
 Ca        14.2759159319       11.7779641584       10.6519930724
 Ca         6.0571170972       19.5913802789        7.8877825536
  O        10.8357697318       15.3850159952        4.8141873688
  O         2.6764553377       19.2169610971        7.5516952622
  O         2.5880179722       15.1047411192       13.1252871720
  O        10.8143483175       22.9750261733       10.3888202129
  O        12.9968377446       14.2196239508        4.0176662756
  O         4.8349299835       18.0657861803        6.7030096499
  O         4.8295788093       14.0064621809       12.2412861293
  O        12.9820025463       21.8578814526        9.5347555649
  P        11.4420603486       14.2399597706        3.8737784112
  P         3.2507337294       18.0280198934        6.6991928978
  P         3.2729615974       13.9826384856       12.2880075743
  P        11.4323953550       21.8528105808        9.4521912301
 Ca        10.1930808118       12.0444920685        2.3543347134
 Ca         2.0395306305       15.7345361030        5.0270347737
 Ca         2.0877084987       11.7442946769       10.6317540820
 Ca        10.2024394367       19.5124323745        7.7812482998
  O         4.1570633981       13.5029382278        3.4051227578
  O        12.3429906107       17.3733468637        6.2456483975
  O        12.3666827495       13.2354931438       11.7960354944
  O         4.1953383260       21.1654487027        9.0164726075
  O         4.3124839967       15.6347922308        4.9738671168
  O        12.4993685455       19.4695871187        7.7879230922
  O        12.5225049230       15.4975590638       13.2977550330
  O         4.2797367481       23.2561451618       10.4962387934
  P         5.1889073735       14.5968769995        4.1850878788
  P        13.3171578206       18.3724728415        6.9402661525
  P        13.3164711989       14.3542284536       12.6050802703
  P         5.1408480664       22.2016319870        9.7618834850
 Ca         8.2413730544       14.8898194806        4.3255487169
 Ca         0.0515093574       18.6745530168        7.1920805277
 Ca         0.1104642485       14.5971552395       12.7033050620
 Ca         8.1426979119       22.5537725793        9.9309161052
 Ca        13.6391335013       12.0321995162        4.3845116698
 Ca         5.4573586980       19.6044014800        1.6503856431
 Ca         5.4467620904       15.7222842395        7.1837499183
 Ca        13.6656918679       19.5041205610        9.8694783475
 Ca         2.7564919135       14.1189673056        1.6758103777
 Ca        10.8824537572       17.7536581789        4.2632638558
 Ca        10.8567287208       13.7463631423        9.9788543172
 Ca         2.7071201277       21.5560123445        7.1825271274
 Ca         2.6627565609       11.9392644739        4.4503124939
 Ca        10.8765998631       15.7241514891        7.1288659273
 Ca        10.8685069511       11.8534103535       12.6679071451
 Ca         2.6761627021       19.4166085473        9.9356982930
 Ca         5.4668296564       17.7041259198        4.3362401050
 Ca         5.4426443913       13.6931297914       10.0480884155
 Ca        13.6148703201       21.5537699962        7.1297409000
 Ca        13.5681511547       17.3368333715       12.6507561753
  O         8.1287728961       11.6577126951        5.4439562730
  O         0.0425211001       15.3455634754        8.4207982767
  O        -0.0079758499       10.6707992041       14.0664383991
  O         8.1406593214       19.1564541171       11.1844861637
  H         8.1759596891       11.9495298644        4.1859176033
  H        -0.0480810455       15.2342069042        7.2508305688
  H        -0.0026658775       11.1389700117       13.4046832300
  H         8.1982910804       19.0813343587        9.9755725226
  O         0.0491515562       17.4951506064        5.5196637523
  O         0.0564983709       13.2766726625       11.1893690157
  O         8.1455013288       21.1715224478        8.3987070937
  O         8.1797408134       16.5611208405       14.1172010347
  H        -0.0307263567       17.7499156620        4.1912804965
  H        -0.0636242548       13.2393127002       10.0033652544
  H         8.1714976491       21.0785738104        7.2129351073
  H         8.1547777239       16.9235532982       13.3910216174
  O         8.1380790218       12.8449051055        2.9202344303
  O        -0.0340542562       16.0931755379        5.9033840593
  O        -0.0556720598       11.9303030077       11.5723148403
  O         8.2013101835       19.9433261771        8.6915053517
  H         8.1623619452       12.4461874008        3.7240614207
  H         0.0390130496       16.1802879869        7.1070027311
  H         0.0330379026       11.6659981515       12.9008567761
  H         8.1172162043       19.9763984355        9.8576751544
  O         0.0096250631       18.7493514152        2.9859508711
  O        -0.0469981867       14.0682465134        8.6667529428
  O         8.1565102036       21.9308383210        5.9166931260
  O         8.2368053795       17.8378091849       11.7338697709
  H        -0.0033226766       18.2605603787        3.7259289336
  H         0.0481559097       14.1850554781        9.8418248329
  H         8.1665898640       22.0119397671        7.1274726774
  H         8.1157209381       17.4173450485       12.8968886199
  O         8.2686358300        9.5695287385       18.2043387618
  C         8.0348467008       10.4845835050       18.2315320633
  O         7.8084042154       11.3916653879       18.2558515402
     387
 i =        7, E =     -6918.1105148160
  O         8.8010144914        6.3464078720        0.8170685858
  O         8.8836501433        2.2622261257        6.4264145391
  O         0.7619078348       10.1061808818        3.6063922796
  O         0.6863369038        6.0604946920        9.1761409930
  O        13.6052346358        7.2128132777        1.5262412701
  O        13.5522785687        3.1427102099        7.0816911611
  O         5.3997394887       10.9985549398        4.2237769203
  O         5.3727693466        7.0040564242        9.8588450909
  O         2.0244308085        6.2484051384        0.8320257818
  O         2.0846270616        2.1393428292        6.3418596621
  O        10.2188766216       10.0999366285        3.5583938928
  O        10.2813788042        5.9985617206        9.1012813678
  O        15.7286998717        3.5848611615        3.1273068333
  O         7.4396130958        7.3629842533        5.8803650278
  O         7.4770763270        3.2591433930       11.3272344948
  O        15.6105073069       11.1626718502        8.6468610244
  O        10.8766052791        2.5318316925        2.4332927778
  O         2.7867493146        6.4786554625        5.2123985702
  O         2.7661746579        2.3725355933       10.7311702989
  O        10.9399096974       10.2619189369        8.0167955362
  O         6.0782801198        3.6127753667        3.1405905732
  O        14.2215633236        7.4714312352        5.9568009809
  O        14.2444921378        3.4263089891       11.4973501160
  O         6.0882914649       11.2326841168        8.7197425225
  O        15.6369656423        2.0441240863        5.1322246208
  O         7.4417147183        5.8601926868        7.8918892472
  O         7.5102787212        1.7541667125       13.4889342318
  O        15.5512299194        9.6564473388       10.6870172852
  O        10.9585329033        1.1112763328        4.4459902385
  O         2.7722245149        4.9710610439        7.2389503133
  O         2.7328286647        0.9086604210       12.7793753696
  O        10.9252058786        8.7826911433       10.0899277468
  O         6.0317782291        2.1240276097        5.2129269242
  O        14.2388910382        5.9742095320        7.9736367687
  O        14.3017397049        1.8753450728       13.4720591999
  O         6.1057871459        9.6848486740       10.7517992462
  O         8.8348990464        4.8452175673        2.9713537839
  O         8.8824250507        0.7481213850        8.4327490507
  O         0.7202284801        8.6380459883        5.6792763963
  O         0.5981354951        4.5237431340       11.1830959747
  O        13.5586801780        5.7464532058        3.5765498676
  O        13.5448942911        1.6374476702        9.1003832111
  O         5.3814691465        9.5286253295        6.2952484524
  O         5.4360437455        5.5837161794       11.8708392878
  O         2.0789043112        4.6800550805        2.8036663709
  O         2.0897955357        0.6445862367        8.3562576360
  O        10.2330374101        8.5505165872        5.5994940123
  O        10.2535417276        4.4927079192       11.1606772760
  O         6.8308516377        6.4930836651        2.4877951608
  O         6.8481818763        2.3351694079        8.0142190153
  O        15.0112789066       10.2021026360        5.2056859082
  O        14.9779183247        6.1625847769       10.8525421523
  O         9.0880063664        7.3302438550        3.1976282961
  O         9.1721559467        3.2638555779        8.6981042166
  O         1.0075811581       11.1204023555        5.9485479340
  O         1.0191726142        7.1410932258       11.4850399313
  P         8.4499335777        6.1924722328        2.2796193157
  P         8.3964529721        2.1621879870        7.8856883525
  P         0.2567685124       10.0148618641        5.0822598481
  P         0.3022183405        6.0103392587       10.7281989318
 Ca        10.2617238116        0.1932635746        6.4139159566
 Ca         2.0209426930        7.9795128269        3.6724302645
 Ca         2.1622782647        4.0086495269        9.3156548512
 Ca        10.2275380225        7.6578644501       11.9307561919
  O        13.7501813190        4.6924044015        1.1875556172
  O        13.6457152207        0.5639759973        6.7649652471
  O         5.5110737843        8.4833909290        3.9139932538
  O         5.4840353684        4.4030722203        9.4975211459
  O        11.5021337996        5.7698827824        2.0767502404
  O        11.4958022364        1.7143776557        7.6105302784
  O         3.3366620994        9.6026152581        4.7698121538
  O         3.3274765615        5.5719435629       10.2756821485
  P        13.0455528785        5.8028634058        2.0170277475
  P        13.0673924025        1.7524671973        7.6062781575
  P         4.9002957375        9.6078325616        4.8371292845
  P         4.8837235100        5.5353260318       10.4407097524
 Ca         6.1266236019        0.2707424648        6.5342563262
 Ca        14.2487837185        7.9979187035        3.6686069551
 Ca        14.2554135358        4.0653007101        9.2992996907
 Ca         6.1049109692        7.7269943814       11.9626003904
  O         3.9380074429        6.5409332410        2.5021947947
  O         3.9775013933        2.4078233011        8.0674924292
  O        12.1249039113       10.2909623347        5.2884770869
  O        12.1598736887        6.2803773714       10.9029958559
  O         3.7938492779        4.2685625895        1.0092448996
  O         3.8176611131        0.3095044004        6.5261408665
  O        12.0463251080        8.1943395302        3.8168455821
  O        12.0110622778        4.1431075004        9.3315888490
  P         3.0047315084        5.4333706943        1.7079475896
  P         3.0178613015        1.4091223044        7.3650599012
  P        11.1770907797        9.2567153874        4.5357668153
  P        11.1395815882        5.1832723092       10.1374110667
 Ca        16.1876457118        5.2228017805        1.6448019576
 Ca        16.2712919337        1.0644940441        7.0751026261
 Ca         8.1950564141        8.8606428167        4.3727886072
 Ca         8.0790643855        4.8427840834        9.9673858301
  O         1.3483717309        1.9454542511        3.4544479685
  O         9.4716765434        5.7809403123        6.2953955536
  O         9.4893069702        1.6053525617       11.8173076926
  O         1.3131338038        9.5811099671        9.1036734678
  O        15.3097766747        0.9634088710        2.8227948743
  O         7.1508691400        4.8426015689        5.6122823287
  O         7.2356260880        0.7821726449       11.1170632605
  O        15.3146002861        8.6599752659        8.3574990067
  P        16.0148724331        2.1069923246        3.5822045807
  P         7.9254351954        5.9501713067        6.4170908817
  P         7.8802368498        1.9294814398       12.0305111034
  P        16.0662708681        9.7513257838        9.2374160505
 Ca         6.0963676889        0.4516535413        2.4124078766
 Ca        14.1756493315        4.1201607781        5.0023810367
 Ca        14.2692300483        0.1104890365       10.6483547827
 Ca         6.0442043554        7.9170003518        7.8887354969
  O        10.8410380035        3.7091005129        4.8099240429
  O         2.6792484924        7.5488334807        7.5482835560
  O         2.5703440361        3.4269279045       13.1238359608
  O        10.8135385972       11.2993156612       10.3956324865
  O        12.9938713522        2.5463162107        4.0296098479
  O         4.8308282612        6.3994000034        6.6990090269
  O         4.8227820082        2.3474254634       12.2329202742
  O        12.9840686733       10.1916853735        9.5397827647
  P        11.4397330819        2.5721243660        3.8741147292
  P         3.2513409788        6.3630678600        6.6978877796
  P         3.2756921242        2.3139570526       12.2993474329
  P        11.4254312091       10.1837220599        9.4684693312
 Ca        10.2013570997        0.3967799827        2.3719304778
 Ca         2.0470636198        4.0634149987        5.0223618561
 Ca         2.1079347309        0.0889008487       10.6418602023
 Ca        10.2166905301        7.8361331282        7.7685725181
  O         4.1617099069        1.8324692641        3.3946855350
  O        12.3421693639        5.7078756537        6.2498145807
  O        12.3806622003        1.5617603147       11.8056784158
  O         4.1979686248        9.4949301187        9.0196444015
  O         4.3113767049        3.9632012706        4.9703103349
  O        12.5009643185        7.8003149726        7.7897907000
  O        12.5246819933        3.8420354162       13.2978795341
  O         4.2725380958       11.5829319010       10.4885038806
  P         5.1849014897        2.9248007938        4.1822235190
  P        13.3107306811        6.7069807949        6.9397929944
  P        13.3190516448        2.6851910890       12.6079299457
  P         5.1394468337       10.5292995227        9.7680812527
 Ca         8.2485227579        3.2360231914        4.3141198739
 Ca         0.0507158263        7.0304327387        7.2154746973
 Ca         0.1302778746        2.9512368258       12.7283156506
 Ca         8.1279402564       10.9251960563        9.9510031815
 Ca        13.6470386845        0.3867004618        4.3876640948
 Ca         5.4667707204        7.9011819535        1.6579938063
 Ca         5.4479164530        4.0555714877        7.1894260954
 Ca        13.6795664496        7.8308973507        9.8538638982
 Ca         2.7615357950        2.4867318151        1.6970247924
 Ca        10.8817922142        6.0880719436        4.2337259154
 Ca        10.8499517337        2.0890862972        9.9885555611
 Ca         2.7044427268        9.8892643411        7.1886994599
 Ca         2.6500428714        0.2764476368        4.4657777188
 Ca        10.8754685829        4.0558622106        7.1236432151
 Ca        10.8602300223        0.2241039836       12.6631028503
 Ca         2.6678627462        7.7273989277        9.9340752775
 Ca         5.4739631376        6.0280826966        4.3279697155
 Ca         5.4439783533        2.0239262396       10.0772281492
 Ca        13.6171905328        9.8841500053        7.1230792508
 Ca        13.5626467633        5.6336703264       12.6333015893
  O         8.1337441226       23.3963791929        5.4582020519
  O         0.0467542410        3.7025039461        8.4861694134
  O        -0.0107119350       22.2469929766       14.2209558124
  O         8.1571566708        7.4993465709       11.2392635233
  H         8.1730220798        0.2875570786        4.1802751918
  H        -0.0538238670        3.5212252206        7.2300709306
  H        -0.0040401175       22.7766387598       13.3755917142
  H         8.1834168801        7.3755154541        9.9756161011
  O         0.0592734409        5.8765594168        5.5281387050
  O         0.0582303630        1.5925870128       11.2038193913
  O         8.1526772154        9.5336545286        8.4258440618
  O         8.1863296744        4.8259214335       14.2905857681
  H        -0.0377176590        6.0902450327        4.1779100655
  H        -0.0688091624        1.5150699611       10.0072216134
  H         8.1704562322        9.3853321059        7.1999257524
  H         8.1540186306        5.1959617601       13.3764807752
  O         8.1326529835        1.2227791195        2.7998988886
  O        -0.0388305398        4.4149825195        5.8827624018
  O        -0.0641572810        0.2161102349       11.5184747346
  O         8.1944418242        8.2304851442        8.6583374841
  H         8.1639849688        0.8575911611        3.6716508037
  H         0.0450545614        4.5442696669        7.1088559105
  H         0.0432649904       -0.0162211625       12.9427812513
  H         8.1278632418        8.3409945023        9.8507454096
  O         0.0136211981        7.1505934692        2.8733258953
  O        -0.0524403469        2.3852490879        8.6520571530
  O         8.1618842532       10.2729300366        5.8987636603
  O         8.2426387727        6.1256719143       11.7168714495
  H        -0.0029978488        6.6492723897        3.6844210341
  H         0.0552541589        2.5696009052        9.8322335630
  H         8.1630391497       10.3633167527        7.1255603838
  H         8.1115181118        5.7255564873       12.9310526059
  O         8.8004709833       18.0153740702        0.8175040527
  O         8.8835636074       13.9293488861        6.4262320180
  O         0.7619331320       21.7741757219        3.6063809857
  O         0.6860334629       17.7277262827        9.1760615252
  O        13.6052819967       18.8809934702        1.5271489398
  O        13.5527738159       14.8104081006        7.0820717473
  O         5.3996856467       22.6659105181        4.2241309915
  O         5.3724700538       18.6716711639        9.8587759730
  O         2.0244411518       17.9166522817        0.8323486011
  O         2.0845155795       13.8059257347        6.3419399564
  O        10.2190972403       21.7677104043        3.5581502090
  O        10.2812946673       17.6655319453        9.1012882137
  O        15.7285427517       15.2525307339        3.1270285229
  O         7.4392317159       19.0300304941        5.8802697480
  O         7.4775817715       14.9264789961       11.3269529595
  O        15.6102106179       22.8296456838        8.6467396600
  O        10.8766129508       14.1982386135        2.4335804652
  O         2.7868459761       18.1460684720        5.2124374143
  O         2.7662506174       14.0398343742       10.7309901267
  O        10.9394954670       21.9284953832        8.0169031707
  O         6.0782896535       15.2796868609        3.1402925346
  O        14.2214892690       19.1387348118        5.9568554606
  O        14.2441276807       15.0940609447       11.4971955160
  O         6.0886511699       22.8997668089        8.7195565897
  O        15.6369737769       13.7122307480        5.1321727658
  O         7.4419353300       17.5283155133        7.8920730895
  O         7.5096249244       13.4231660263       13.4890026786
  O        15.5513939110       21.3242665771       10.6872599297
  O        10.9584439598       12.7789163039        4.4462815009
  O         2.7724380781       16.6386011355        7.2392804141
  O         2.7336366186       12.5761617542       12.7799916700
  O        10.9253991049       20.4501865099       10.0898517417
  O         6.0318384407       13.7915752648        5.2134188881
  O        14.2390743602       17.6409703522        7.9737830627
  O        14.3018161381       13.5438781351       13.4724209344
  O         6.1057142736       21.3517322320       10.7510724742
  O         8.8353207607       16.5127076113        2.9714348142
  O         8.8821094939       12.4155799681        8.4326045270
  O         0.7201947724       20.3061462569        5.6793139691
  O         0.5980571456       16.1913957252       11.1825397605
  O        13.5582080377       17.4137321634        3.5760925851
  O        13.5450419223       13.3046276857        9.1004539891
  O         5.3811374309       21.1949944853        6.2952407180
  O         5.4361766511       17.2506673109       11.8710259307
  O         2.0791112559       16.3472783955        2.8033508331
  O         2.0898213655       12.3118749745        8.3562215888
  O        10.2331757787       20.2185625546        5.5995301586
  O        10.2540587594       16.1587895179       11.1605063544
  O         6.8311012361       18.1610244826        2.4882716799
  O         6.8482144485       14.0027734248        8.0142252936
  O        15.0112505728       21.8697884290        5.2056341917
  O        14.9780627965       17.8303828002       10.8525796513
  O         9.0891712055       18.9973813068        3.1974710287
  O         9.1722172671       14.9313751767        8.6980995632
  O         1.0077540861       22.7881918376        5.9484520232
  O         1.0191990142       18.8085109504       11.4853777208
  P         8.4488595884       17.8597208365        2.2795049389
  P         8.3965267888       13.8298434405        7.8860070216
  P         0.2567578682       21.6828038316        5.0822834715
  P         0.3021860317       17.6780399345       10.7280826620
 Ca        10.2618237013       11.8604188672        6.4142201821
 Ca         2.0205799161       19.6468378906        3.6724839002
 Ca         2.1635909476       15.6761776469        9.3164878788
 Ca        10.2249051326       19.3242190030       11.9295901232
  O        13.7494403811       16.3602772750        1.1872685331
  O        13.6458043137       12.2316296074        6.7646759172
  O         5.5109753379       20.1504669676        3.9141084211
  O         5.4839724104       16.0705081649        9.4972517298
  O        11.5026033740       17.4369642690        2.0760926250
  O        11.4957213048       13.3824760059        7.6104139448
  O         3.3367992763       21.2691815029        4.7697339887
  O         3.3271705700       17.2400156605       10.2756139460
  P        13.0461521740       17.4700720160        2.0177080298
  P        13.0672572923       13.4199136414        7.6060920476
  P         4.9006654723       21.2750270008        4.8373677689
  P         4.8838687758       17.2031473440       10.4407582692
 Ca         6.1260319895       11.9384082956        6.5347306530
 Ca        14.2491540324       19.6657869223        3.6687607484
 Ca        14.2544297374       15.7333105539        9.2998554972
 Ca         6.1047013836       19.3950524991       11.9632701436
  O         3.9379869379       18.2087377359        2.5025727413
  O         3.9769772730       14.0753316199        8.0672969105
  O        12.1254211933       21.9585206151        5.2885095923
  O        12.1601413658       17.9477316641       10.9032057159
  O         3.7937939034       15.9363818348        1.0089356461
  O         3.8179067243       11.9771217412        6.5263476188
  O        12.0461954228       19.8618369526        3.8165530407
  O        12.0114581296       15.8106124798        9.3313838797
  P         3.0048801505       17.1006835509        1.7079536404
  P         3.0179900459       13.0764811114        7.3649452717
  P        11.1768649132       20.9244935333        4.5360723033
  P        11.1392668640       16.8500543570       10.1378388638
 Ca        16.1881733153       16.8908800530        1.6450243445
 Ca        16.2713517424       12.7313953713        7.0746201011
 Ca         8.1948683248       20.5281802760        4.3716859880
 Ca         8.0788559157       16.5112972966        9.9688642001
  O         1.3482782193       13.6134257155        3.4545814197
  O         9.4718583456       17.4492094414        6.2954780103
  O         9.4894793527       13.2727431733       11.8169365563
  O         1.3131692133       21.2488223845        9.1037629869
  O        15.3099437095       12.6312066735        2.8232212655
  O         7.1510189077       16.5100801391        5.6123902393
  O         7.2356818829       12.4495105647       11.1178169785
  O        15.3145661489       20.3273597580        8.3578911827
  P        16.0148796928       13.7747850888        3.5820860575
  P         7.9254367164       17.6182460818        6.4170955872
  P         7.8803105833       13.5982026610       12.0307662046
  P        16.0663030399       21.4190827911        9.2373971488
 Ca         6.0965246532       12.1188995295        2.4123514288
 Ca        14.1766157860       15.7876865319        5.0025046921
 Ca        14.2709352233       11.7782516057       10.6488286092
 Ca         6.0436363108       19.5838646711        7.8883710720
  O        10.8410342984       15.3766654655        4.8098117949
  O         2.6792716632       19.2161537194        7.5480579272
  O         2.5702081593       15.0947236073       13.1240533170
  O        10.8133876582       22.9667887863       10.3952362036
  O        12.9937903802       14.2141805597        4.0298677850
  O         4.8308143752       18.0670912812        6.6990739776
  O         4.8228556713       14.0139676219       12.2328876832
  O        12.9839209400       21.8595726769        9.5395364198
  P        11.4397227527       14.2397593350        3.8736409904
  P         3.2512572932       18.0308390736        6.6978818464
  P         3.2755752945       13.9811311932       12.2990087696
  P        11.4254570447       21.8513542995        9.4685687636
 Ca        10.2015907262       12.0644924570        2.3717646471
 Ca         2.0463773182       15.7316218030        5.0222988724
 Ca         2.1059823439       11.7568964757       10.6422945827
 Ca        10.2187131771       19.5024890398        7.7676997008
  O         4.1618206999       13.4993028901        3.3951188147
  O        12.3421936391       17.3747800290        6.2498558993
  O        12.3811505161       13.2294192854       11.8060597061
  O         4.1973223031       21.1624377964        9.0195035751
  O         4.3114292113       15.6304774268        4.9702387304
  O        12.5011644635       19.4674421049        7.7898275029
  O        12.5246135394       15.5096725076       13.2976756577
  O         4.2727130127       23.2505515587       10.4885861336
  P         5.1847611562       14.5920046479        4.1820620559
  P        13.3107582356       18.3742940317        6.9397163745
  P        13.3187423638       14.3532885859       12.6079874335
  P         5.1396853624       22.1966522217        9.7682636732
 Ca         8.2484045497       14.9043564828        4.3141001255
 Ca         0.0510089920       18.6976992868        7.2142650727
 Ca         0.1301310813       14.6172363111       12.7274794502
 Ca         8.1277696040       22.5945051605        9.9523300813
 Ca        13.6470873997       12.0540293488        4.3874131378
 Ca         5.4674413269       19.5690344826        1.6573681902
 Ca         5.4478647711       15.7233030714        7.1893303566
 Ca        13.6792568789       19.4988541341        9.8538755943
 Ca         2.7615343275       14.1550731167        1.6969336719
 Ca        10.8814657898       17.7556289475        4.2340559876
 Ca        10.8497170395       13.7562218661        9.9883885983
 Ca         2.7046470061       21.5572116055        7.1885454967
 Ca         2.6497233628       11.9444686521        4.4660061077
 Ca        10.8752008073       15.7233898793        7.1236228017
 Ca        10.8599543587       11.8917816559       12.6624678562
 Ca         2.6682049803       19.3952719554        9.9339313591
 Ca         5.4739645930       17.6954357738        4.3275318653
 Ca         5.4440533275       13.6919208990       10.0772125280
 Ca        13.6171289962       21.5515653840        7.1228583190
 Ca        13.5628155914       17.3011767853       12.6332409840
  O         8.1250871950       11.7267027782        5.4561131745
  O         0.0489118024       15.3637337262        8.4877185516
  O        -0.0104314812       10.5690982672       14.2158360046
  O         8.1446611337       19.1781529057       11.2368716149
  H         8.1796949570       11.9616372395        4.1812798585
  H        -0.0544041305       15.1911718638        7.2438749565
  H        -0.0048402264       11.1267916015       13.3947747386
  H         8.2023228623       19.0445135554        9.9743087616
  O         0.0602122308       17.5471400316        5.5228797257
  O         0.0611879956       13.2596392004       11.2016506767
  O         8.1453866283       21.2033460108        8.4258737434
  O         8.1895343395       16.4931058332       14.2884998381
  H        -0.0386206019       17.7619801784        4.1806476677
  H        -0.0697625873       13.1922763273       10.0190946166
  H         8.1716861171       21.0459907288        7.1981011148
  H         8.1497529280       16.8620304474       13.3812208997
  O         8.1330057589       12.8909905928        2.7968250491
  O        -0.0364357045       16.0723379940        5.8864050973
  O        -0.0637734728       11.8762734001       11.5298385362
  O         8.2051553758       19.8951935648        8.6585080884
  H         8.1624766121       12.5239720737        3.6704506523
  H         0.0422936305       16.2116203956        7.0964959206
  H         0.0420104899       11.6418499964       12.9384167840
  H         8.1117448165       20.0172086742        9.8540607971
  O         0.0123075166       18.8172196494        2.8732809451
  O        -0.0561379569       14.0592521840        8.6468277899
  O         8.1550767815       21.9250613250        5.9001097077
  O         8.2572764109       17.7866060800       11.7278109061
  H        -0.0027484342       18.3196209553        3.6813235160
  H         0.0563741746       14.2392627486        9.8279636376
  H         8.1688579369       22.0390843810        7.1300284518
  H         8.1045189624       17.3923962951       12.9294077881
  O         8.3503774406        9.3195287385       18.1911834053
  C         8.0395178370       10.4538509597       18.2326623180
  O         7.7206152320       11.6416653879       18.2692399852
     387
 i =        8, E =     -6918.4775717777
  O         8.7960163595        6.3454906083        0.8232346718
  O         8.8864713325        2.2670801587        6.4268759999
  O         0.7619294824       10.1057435661        3.6126561641
  O         0.6856261482        6.0629370527        9.1843370022
  O        13.6081568311        7.2084724808        1.5315004235
  O        13.5508530351        3.1394133409        7.0854998668
  O         5.3973183134       10.9945023824        4.2238281632
  O         5.3696528897        6.9983598697        9.8617216670
  O         2.0282532715        6.2431544620        0.8338493688
  O         2.0857053233        2.1368631279        6.3433087381
  O        10.2202604432       10.0987174747        3.5629013787
  O        10.2840711075        5.9950020501        9.1068019503
  O        15.7332530082        3.5781257690        3.1321771453
  O         7.4397551743        7.3570791648        5.8849335474
  O         7.4807722885        3.2537180484       11.3248223120
  O        15.6115961727       11.1598284522        8.6517620110
  O        10.8779174082        2.5299089373        2.4375796043
  O         2.7888124869        6.4779749312        5.2139302171
  O         2.7666967237        2.3713455116       10.7314852084
  O        10.9410731138       10.2621178648        8.0172362002
  O         6.0744467122        3.6086759307        3.1452106436
  O        14.2180365733        7.4722521842        5.9592342555
  O        14.2397278247        3.4266259643       11.5047224098
  O         6.0855146895       11.2314929443        8.7235426684
  O        15.6367294696        2.0400453482        5.1218164502
  O         7.4405827239        5.8580051130        7.8921737488
  O         7.5157496401        1.7548851117       13.4826668450
  O        15.5484296145        9.6526869558       10.6828598616
  O        10.9618295528        1.1173318565        4.4431990264
  O         2.7732173718        4.9753377830        7.2360217306
  O         2.7288332890        0.9104350316       12.7738145838
  O        10.9281070004        8.7878783248       10.0878134335
  O         6.0300519048        2.1252316557        5.2080811563
  O        14.2387633795        5.9765417565        7.9724074045
  O        14.3003407956        1.8775384976       13.4705674037
  O         6.1027820192        9.6886387215       10.7452205756
  O         8.8309925274        4.8507093765        2.9748136932
  O         8.8813175783        0.7518126032        8.4265890852
  O         0.7201264835        8.6417988362        5.6780715046
  O         0.5933905454        4.5307979004       11.1779488853
  O        13.5591576125        5.7473953896        3.5754717846
  O        13.5435674742        1.6373572301        9.0973787659
  O         5.3793295367        9.5297275766        6.2930389685
  O         5.4337170469        5.5852990011       11.8680619669
  O         2.0824337770        4.6814263315        2.7971483141
  O         2.0926855547        0.6447171887        8.3532107555
  O        10.2372240480        8.5530251220        5.5941293067
  O        10.2588632227        4.4932166830       11.1575463641
  O         6.8331511299        6.4936923868        2.4891160590
  O         6.8550377374        2.3343342022        8.0138598282
  O        15.0189682144       10.2023612113        5.2031352765
  O        14.9860763145        6.1626032807       10.8529653103
  O         9.0870890341        7.3261987775        3.1986697929
  O         9.1714430296        3.2600817226        8.6954675179
  O         1.0053690066       11.1139857202        5.9448045347
  O         1.0167094581        7.1353159331       11.4812599350
  P         8.4510023051        6.1956381340        2.2704710786
  P         8.3951817019        2.1615530951        7.8896770753
  P         0.2558183255       10.0158889217        5.0788961767
  P         0.2947979435        6.0120059409       10.7301226231
 Ca        10.2650059759        0.1936723948        6.4124451022
 Ca         2.0208870464        7.9801318209        3.6738077487
 Ca         2.1709955062        4.0076788142        9.3191937864
 Ca        10.2335445782        7.6514577849       11.9267345889
  O        13.7543584461        4.6980910057        1.1907617759
  O        13.6434693464        0.5683427892        6.7680469457
  O         5.5090652466        8.4883232904        3.9154426698
  O         5.4800149616        4.4096886322        9.5051431635
  O        11.5111515988        5.7660443987        2.0772288155
  O        11.5019072896        1.7151029905        7.6111290048
  O         3.3404778722        9.6030912545        4.7698995414
  O         3.3362838141        5.5754829976       10.2757798129
  P        13.0455698280        5.8066956394        2.0087424443
  P        13.0687314262        1.7510802864        7.6078780203
  P         4.9055754619        9.6099061576        4.8284175869
  P         4.8877420484        5.5381316831       10.4359004526
 Ca         6.1217556418        0.2723410782        6.5365713068
 Ca        14.2456136556        7.9951419907        3.6638213940
 Ca        14.2501815266        4.0681017341        9.3005049875
 Ca         6.0956901407        7.7259134597       11.9626442917
  O         3.9278829762        6.5350193656        2.4953538119
  O         3.9755816189        2.4047686603        8.0649523753
  O        12.1222537579       10.2894349573        5.2861984045
  O        12.1526477450        6.2753625309       10.9047552356
  O         3.7909171257        4.2759389031        1.0101002752
  O         3.8150399260        0.3140040831        6.5300908723
  O        12.0398130904        8.2019655658        3.8210535143
  O        12.0047801774        4.1476156939        9.3359305340
  P         3.0022376331        5.4376385216        1.7093482946
  P         3.0200974604        1.4090127082        7.3655679001
  P        11.1794783961        9.2589680369        4.5352773706
  P        11.1442551459        5.1898412721       10.1384305423
 Ca        16.1784692103        5.2245453076        1.6412738074
 Ca        16.2708805387        1.0485098132        7.0571547104
 Ca         8.1965418494        8.8455133854        4.3594283410
 Ca         8.0756192944        4.8318917196        9.9629000428
  O         1.3401568614        1.9448797717        3.4541804702
  O         9.4656372119        5.7817454258        6.2960255964
  O         9.4856061479        1.6060107250       11.8161876701
  O         1.3048482879        9.5801049707        9.1065616659
  O        15.3123259808        0.9686517419        2.8260844357
  O         7.1524105579        4.8460124022        5.6153848587
  O         7.2363794405        0.7880071888       11.1176420040
  O        15.3172843557        8.6669918969        8.3607763566
  P        16.0229293471        2.1035301181        3.5804561273
  P         7.9264160536        5.9514339423        6.4135028622
  P         7.8789812993        1.9239814110       12.0378676289
  P        16.0685007233        9.7528257532        9.2364928645
 Ca         6.0896947403        0.4562801282        2.4177474067
 Ca        14.1708087074        4.1221275123        4.9992033630
 Ca        14.2604622025        0.1088678044       10.6455547401
 Ca         6.0361792746        7.9157924414        7.8869757910
  O        10.8446022721        3.7025977571        4.8024455843
  O         2.6812595733        7.5439521682        7.5455107911
  O         2.5659096166        3.4209507859       13.1200670879
  O        10.8157354232       11.2954661404       10.3940982616
  O        12.9857394119        2.5437469634        4.0294845401
  O         4.8236532047        6.3973621078        6.6983594909
  O         4.8128040447        2.3503084128       12.2318608260
  O        12.9816148175       10.1916718940        9.5391198051
  P        11.4360639713        2.5706533015        3.8767756092
  P         3.2517715078        6.3641613299        6.6980962395
  P         3.2766003077        2.3127141385       12.3064930699
  P        11.4185176430       10.1799915433        9.4805123042
 Ca        10.2059905853        0.3986573724        2.3738899145
 Ca         2.0490843788        4.0623537429        5.0210424354
 Ca         2.1138310772        0.0920396530       10.6459869154
 Ca        10.2272054362        7.8332749586        7.7623207485
  O         4.1702962530        1.8386873462        3.3943698995
  O        12.3443672246        5.7111668880        6.2532302342
  O        12.3920629136        1.5692806363       11.8131257893
  O         4.2000165877        9.4949309010        9.0213620624
  O         4.3164965072        3.9605359136        4.9666063169
  O        12.5049733277        7.7956705059        7.7857804656
  O        12.5276813843        3.8355790299       13.2967703006
  O         4.2788687273       11.5763387538       10.4849969283
  P         5.1802864158        2.9193311347        4.1773347370
  P        13.3060454075        6.7068478163        6.9406988811
  P        13.3197220367        2.6802505894       12.6030105722
  P         5.1392542485       10.5242942111        9.7705253034
 Ca         8.2508996548        3.2412359090        4.3114196908
 Ca         0.0509994160        7.0449359322        7.2286582760
 Ca         0.1405646612        2.9644460995       12.7469921991
 Ca         8.1267537424       10.9440336029        9.9694353529
 Ca        13.6489891905        0.3884867601        4.3897474578
 Ca         5.4730067678        7.8950895202        1.6571380013
 Ca         5.4480957826        4.0556917365        7.1909272971
 Ca        13.6821236208        7.8298261018        9.8511971676
 Ca         2.7601067135        2.4920531367        1.7052139467
 Ca        10.8807377978        6.0884637851        4.2252600289
 Ca        10.8472690168        2.0897299368        9.9911631195
 Ca         2.7043918292        9.8897550946        7.1908021646
 Ca         2.6470355758        0.2782376171        4.4675431189
 Ca        10.8749116865        4.0554520681        7.1216831530
 Ca        10.8544556701        0.2299482301       12.6646208662
 Ca         2.6666660400        7.7259383248        9.9317098313
 Ca         5.4766774789        6.0273545750        4.3251930568
 Ca         5.4447741939        2.0237752135       10.0856563867
 Ca        13.6168782591        9.8835894407        7.1199115020
 Ca        13.5633854046        5.6278722220       12.6257862860
  O         8.1357180516       23.4050392716        5.4505120028
  O         0.0484055938        3.7092158738        8.4850034217
  O        -0.0111225670       22.2366264470       14.2437967572
  O         8.1593345620        7.5026057755       11.2205120862
  H         8.1727080685        0.2731681836        4.2348885038
  H        -0.0533378368        3.5321307099        7.2271431378
  H        -0.0071368758       22.7493454784       13.3831311128
  H         8.1827371568        7.3886911702        9.9909711990
  O         0.0624898252        5.8687380325        5.5055717178
  O         0.0555766359        1.5678043939       11.1567852641
  O         8.1545458516        9.5369021637        8.4090229830
  O         8.1884734713        4.8236453395       14.3187333574
  H        -0.0393337652        6.0775785357        4.2295610864
  H        -0.0653408515        1.5249937920       10.0291183885
  H         8.1696644434        9.3966428850        7.1981192577
  H         8.1547965922        5.1549516385       13.3869607588
  O         8.1321141791        1.2342999049        2.7645258861
  O        -0.0373584366        4.4186372512        5.9262760356
  O        -0.0621852690        0.2168682713       11.5130144443
  O         8.1917931347        8.2160028990        8.6665040758
  H         8.1641043067        0.8795092444        3.6686900976
  H         0.0425328175        4.5261273635        7.0853400006
  H         0.0469879816       -0.0010709010       12.9104186569
  H         8.1287532980        8.3324775130        9.8431765897
  O         0.0143253201        7.1676104308        2.8432909121
  O        -0.0548270754        2.3925601188        8.6867186226
  O         8.1609079277       10.2814638618        5.9418005407
  O         8.2485625479        6.1180965053       11.7228433205
  H        -0.0020803598        6.6675069689        3.6802409546
  H         0.0551106697        2.5605822839        9.8171996124
  H         8.1640440631       10.3507327887        7.1057675069
  H         8.1082306979        5.7478180876       12.8959933743
  O         8.7954109759       18.0144742022        0.8234060202
  O         8.8863354225       13.9340424137        6.4267100870
  O         0.7619344074       21.7737251248        3.6126029614
  O         0.6852768167       17.7301702793        9.1843329690
  O        13.6082039793       18.8765386325        1.5324614861
  O        13.5512671191       14.8069793085        7.0859447690
  O         5.3972864213       22.6619884058        4.2241302047
  O         5.3692546927       18.6658375292        9.8616944841
  O         2.0282224544       17.9113605676        0.8341635472
  O         2.0856150197       13.8033648401        6.3433821675
  O        10.2205331605       21.7665815625        3.5625768193
  O        10.2839385401       17.6620367508        9.1068921337
  O        15.7330771291       15.2458709477        3.1318319654
  O         7.4393164500       19.0238326939        5.8846432861
  O         7.4812772332       14.9209392065       11.3245282786
  O        15.6112650459       22.8269904176        8.6514781759
  O        10.8779007867       14.1963130092        2.4377325630
  O         2.7888903216       18.1454406845        5.2138250654
  O         2.7667867488       14.0385389381       10.7313650256
  O        10.9407316001       21.9287109960        8.0173883080
  O         6.0744452536       15.2755216974        3.1449320795
  O        14.2179736208       19.1396037771        5.9591853637
  O        14.2393565322       15.0942768677       11.5046163372
  O         6.0857565721       22.8987259450        8.7233636241
  O        15.6366903411       13.7079835936        5.1216355706
  O         7.4408384987       17.5260249235        7.8924494524
  O         7.5150615916       13.4238987799       13.4829353351
  O        15.5486303576       21.3205497474       10.6830789106
  O        10.9616950636       12.7848833067        4.4435509168
  O         2.7734490495       16.6428878515        7.2363417689
  O         2.7295996796       12.5778385491       12.7744320710
  O        10.9284922729       20.4554623824       10.0878720636
  O         6.0301256910       13.7927092925        5.2085342888
  O        14.2388778576       17.6433668765        7.9724565641
  O        14.3005438414       13.5459021411       13.4709283901
  O         6.1024015617       21.3556924191       10.7445335166
  O         8.8314072465       16.5181612701        2.9747756422
  O         8.8810237554       12.4190892704        8.4265038686
  O         0.7201049097       20.3099847502        5.6780525153
  O         0.5932942479       16.1984000151       11.1775438852
  O        13.5587700435       17.4147017215        3.5750134978
  O        13.5436763397       13.3044544339        9.0974694747
  O         5.3788331247       21.1960456542        6.2929925590
  O         5.4339246847       17.2522080039       11.8682055455
  O         2.0826128329       16.3486875624        2.7968364825
  O         2.0926859907       12.3119750146        8.3532666291
  O        10.2376127414       20.2211204423        5.5939839212
  O        10.2594779546       16.1590043266       11.1573661386
  O         6.8334201946       18.1614845293        2.4894675803
  O         6.8550885529       14.0018412039        8.0138644766
  O        15.0189539870       21.8700519665        5.2030616903
  O        14.9861378651       17.8303876791       10.8530310476
  O         9.0882506085       18.9931063251        3.1984400821
  O         9.1714887888       14.9275361192        8.6954315390
  O         1.0055073987       22.7818736377        5.9447289463
  O         1.0167229402       18.8027546884       11.4816095117
  P         8.4502161916       17.8631668909        2.2708266896
  P         8.3952122927       13.8294155834        7.8899127833
  P         0.2558181189       21.6837982499        5.0789817807
  P         0.2948890471       17.6797956588       10.7298369217
 Ca        10.2650314565       11.8610164108        6.4127044117
 Ca         2.0206118824       19.6474789806        3.6739761310
 Ca         2.1722196081       15.6753852999        9.3199560231
 Ca        10.2299524872       19.3174938845       11.9253156038
  O        13.7536088594       16.3658849169        1.1904145488
  O        13.6435206747       12.2359192096        6.7677641438
  O         5.5089133582       20.1553659414        3.9154922559
  O         5.4799278162       16.0770488147        9.5048835724
  O        11.5115611365       17.4331255863        2.0765313413
  O        11.5017812282       13.3830586551        7.6109970729
  O         3.3405066531       21.2696241022        4.7697569058
  O         3.3360625986       17.2434757760       10.2757393811
  P        13.0460849569       17.4740491908        2.0094466073
  P        13.0687392425       13.4187306148        7.6077004890
  P         4.9060439222       21.2769899473        4.8287687072
  P         4.8878568583       17.2061358958       10.4359135619
 Ca         6.1207812978       11.9403107263        6.5371780719
 Ca        14.2458291258       19.6630986068        3.6641047943
 Ca        14.2494378293       15.7361683737        9.3009891486
 Ca         6.0950004800       19.3940613797       11.9634314841
  O         3.9278203094       18.2028087526        2.4956737525
  O         3.9751132619       14.0722291493        8.0647833874
  O        12.1228541057       21.9570393945        5.2861817114
  O        12.1528540874       17.9426596707       10.9049361114
  O         3.7908595707       15.9438198815        1.0097966286
  O         3.8153735913       11.9814875613        6.5302491711
  O        12.0397655133       19.8694748644        3.8207479801
  O        12.0051281763       15.8151083510        9.3356950905
  P         3.0024677126       17.1050097080        1.7093667270
  P         3.0201077875       13.0765240498        7.3654425899
  P        11.1791576015       20.9265812816        4.5356730653
  P        11.1440208523       16.8567162517       10.1388767294
 Ca        16.1790664199       16.8924874017        1.6414333596
 Ca        16.2709446929       12.7156340037        7.0568821364
 Ca         8.1963948431       20.5127879900        4.3580664312
 Ca         8.0753310527       16.5007470716        9.9648458828
  O         1.3400670888       13.6127854062        3.4543090959
  O         9.4658960699       17.4499323838        6.2961000953
  O         9.4857162296       13.2733966733       11.8158661021
  O         1.3048635053       21.2478510008        9.1066123579
  O        15.3124541637       12.6363677460        2.8264114400
  O         7.1525540467       16.5133422292        5.6154765849
  O         7.2365067923       12.4550272637       11.1183893962
  O        15.3172384549       20.3344104162        8.3610871502
  P        16.0229630302       13.7713151537        3.5804896208
  P         7.9263169852       17.6198426152        6.4134674001
  P         7.8792541440       13.5928309220       12.0377494113
  P        16.0685785784       21.4204132113        9.2367062868
 Ca         6.0899909318       12.1236825492        2.4175947078
 Ca        14.1719287561       15.7897045967        4.9994717886
 Ca        14.2621214814       11.7766152935       10.6459088140
 Ca         6.0363292592       19.5829130459        7.8867719813
  O        10.8445965519       15.3701086257        4.8022776597
  O         2.6812354533       19.2113637406        7.5452917039
  O         2.5658700070       15.0885915020       13.1201369520
  O        10.8155147125       22.9630690207       10.3938993556
  O        12.9856492265       14.2115802939        4.0297281818
  O         4.8235611565       18.0649640059        6.6983565173
  O         4.8128735879       14.0170011891       12.2318021272
  O        12.9815129931       21.8595555070        9.5388336273
  P        11.4360977492       14.2383563114        3.8765045420
  P         3.2518040451       18.0318090272        6.6981970832
  P         3.2764932041       13.9800424839       12.3063938640
  P        11.4184234462       21.8473177027        9.4803694791
 Ca        10.2061619601       12.0663966768        2.3737004690
 Ca         2.0484279178       15.7306083439        5.0210561524
 Ca         2.1120384527       11.7600402370       10.6463853546
 Ca        10.2292006573       19.4997501876        7.7612664978
  O         4.1703888121       13.5054103630        3.3948060906
  O        12.3444098847       17.3780517281        6.2532529084
  O        12.3925997944       13.2368613561       11.8134827976
  O         4.1992959887       21.1625378621        9.0212567230
  O         4.3165437567       15.6277883696        4.9665030176
  O        12.5053041045       19.4627757364        7.7857922947
  O        12.5275961448       15.5031546184       13.2965884904
  O         4.2790877820       23.2440562230       10.4850744199
  P         5.1801518589       14.5865682366        4.1772156358
  P        13.3061001116       18.3740625298        6.9408163644
  P        13.3193513116       14.3484836121       12.6030152359
  P         5.1396543905       22.1914012373        9.7706597386
 Ca         8.2507670543       14.9095911477        4.3113774213
 Ca         0.0513097443       18.7118955761        7.2272862441
 Ca         0.1403998620       14.6307530563       12.7461375158
 Ca         8.1266931671       22.6127469527        9.9703894090
 Ca        13.6490833433       12.0559077230        4.3894709743
 Ca         5.4737196951       19.5631700649        1.6565027889
 Ca         5.4480490745       15.7235361313        7.1908309376
 Ca        13.6818215653       19.4977555025        9.8511663582
 Ca         2.7601170271       14.1604016757        1.7050714722
 Ca        10.8802997156       17.7561133374        4.2256634826
 Ca        10.8470288508       13.7569714042        9.9910355944
 Ca         2.7046632282       21.5576099248        7.1906827642
 Ca         2.6466526563       11.9463698819        4.4678020121
 Ca        10.8746323611       15.7230682505        7.1216492827
 Ca        10.8540998537       11.8974396990       12.6640655845
 Ca         2.6670249096       19.3937842971        9.9315681099
 Ca         5.4767063445       17.6947870055        4.3248938902
 Ca         5.4448831817       13.6918891662       10.0856257195
 Ca        13.6167733454       21.5509707605        7.1197205960
 Ca        13.5635495513       17.2953783464       12.6257329220
  O         8.1266119513       11.7356641333        5.4491000175
  O         0.0511052004       15.3745503150        8.4850123778
  O        -0.0108716187       10.5559581249       14.2386738268
  O         8.1494153515       19.1818631177       11.2161925694
  H         8.1797996834       11.9474765977        4.2352856718
  H        -0.0538340100       15.2021415589        7.2405546269
  H        -0.0081264743       11.1023895238       13.4062413108
  H         8.2011153456       19.0587578352        9.9914381140
  O         0.0634083364       17.5412330016        5.4995154001
  O         0.0584634107       13.2337783169       11.1576586683
  O         8.1473584308       21.2064151671        8.4074304786
  O         8.1921713496       16.4903466610       14.3172438876
  H        -0.0402234234       17.7489901035        4.2338475589
  H        -0.0661290524       13.2010017134       10.0423552625
  H         8.1706439666       21.0578614748        7.1951724116
  H         8.1501108922       16.8220975486       13.3914665409
  O         8.1323811240       12.9028548449        2.7606149357
  O        -0.0350138065       16.0742166481        5.9299661835
  O        -0.0617188660       11.8782762222       11.5233520342
  O         8.2033061043       19.8800799229        8.6684001784
  H         8.1620829219       12.5457691235        3.6670928324
  H         0.0399101716       16.1944435280        7.0723185258
  H         0.0459038298       11.6569544434       12.9024001583
  H         8.1127898131       20.0090639910        9.8481145452
  O         0.0129885120       18.8340008645        2.8434250353
  O        -0.0593550542       14.0614231236        8.6817593552
  O         8.1549159667       21.9334914557        5.9446282878
  O         8.2622619861       17.7783910935       11.7338946153
  H        -0.0017163757       18.3377063718        3.6771824987
  H         0.0561964819       14.2309154815        9.8136200600
  H         8.1696733481       22.0254933728        7.1101332546
  H         8.1014404557       17.4142405511       12.8933098282
  O         8.3672006747        9.2654530141       18.1887541020
  C         8.0337031121       10.4726417677       18.2334598136
  O         7.7087438946       11.6681283995       18.2715083970
     387
 i =        9, E =     -6919.0830368921
  O         8.7857666205        6.3447325360        0.8244269538
  O         8.8937917067        2.2809723115        6.4322213562
  O         0.7639321070       10.1065013439        3.6257561623
  O         0.6835519210        6.0707945900        9.2032942721
  O        13.6169789681        7.2021224303        1.5447308007
  O        13.5489661619        3.1330281746        7.0965073922
  O         5.3933928589       10.9884657704        4.2205823510
  O         5.3635150043        6.9863438761        9.8665184720
  O         2.0336727937        6.2333940116        0.8328569189
  O         2.0873021060        2.1299469360        6.3463449728
  O        10.2223141133       10.0965854950        3.5729441484
  O        10.2882669535        5.9914653636        9.1169033017
  O        15.7472735357        3.5627767638        3.1441982298
  O         7.4393573059        7.3468395133        5.8944895518
  O         7.4925522852        3.2364748945       11.3202851870
  O        15.6144424221       11.1558610812        8.6652002426
  O        10.8810888269        2.5253187713        2.4479556116
  O         2.7942462434        6.4766558793        5.2159509355
  O         2.7668747914        2.3678720399       10.7325521373
  O        10.9457713957       10.2616657084        8.0258066057
  O         6.0648943288        3.5980583936        3.1533237677
  O        14.2080919959        7.4749226125        5.9651910450
  O        14.2297907327        3.4301013627       11.5182413894
  O         6.0778800111       11.2281830796        8.7346088228
  O        15.6357946934        2.0266040628        5.1002596999
  O         7.4376664014        5.8512503668        7.8915951677
  O         7.5267231686        1.7553673606       13.4795406629
  O        15.5388015892        9.6422660073       10.6729145119
  O        10.9691817488        1.1291780636        4.4388857557
  O         2.7749655189        4.9848145287        7.2288549122
  O         2.7138588489        0.9117188847       12.7578367412
  O        10.9333222262        8.7964965571       10.0862503347
  O         6.0258339545        2.1258206286        5.1971724635
  O        14.2382053055        5.9829502149        7.9704689627
  O        14.3009334636        1.8813485331       13.4681921398
  O         6.0972829152        9.6966486719       10.7321283197
  O         8.8196325809        4.8681837819        2.9821865143
  O         8.8788598424        0.7586763115        8.4142388674
  O         0.7201735590        8.6521725263        5.6758253838
  O         0.5784763835        4.5406860110       11.1657645796
  O        13.5596395988        5.7501063993        3.5707738555
  O        13.5424814363        1.6365616299        9.0951989487
  O         5.3734349955        9.5333898637        6.2841138829
  O         5.4270593986        5.5895625452       11.8606194178
  O         2.0907322059        4.6819440425        2.7844760983
  O         2.0992365951        0.6438052307        8.3477069687
  O        10.2477736835        8.5587711072        5.5812051731
  O        10.2748904811        4.4945092188       11.1501186118
  O         6.8383880184        6.4960962956        2.4924564458
  O         6.8654478783        2.3334231102        8.0146376202
  O        15.0325363566       10.2046300229        5.1980939468
  O        15.0041599079        6.1632906657       10.8544188897
  O         9.0863855400        7.3139845645        3.2003584750
  O         9.1715613362        3.2521919264        8.6916852034
  O         1.0014307635       11.1002016743        5.9381435735
  O         1.0104164930        7.1229469299       11.4748131514
  P         8.4516654044        6.1984023846        2.2611598152
  P         8.3979104182        2.1597622262        7.8905511838
  P         0.2548646192       10.0130060225        5.0705635612
  P         0.2781757951        6.0188675320       10.7312427372
 Ca        10.2732637814        0.1948786216        6.4081505266
 Ca         2.0190917521        7.9811857625        3.6773237625
 Ca         2.1973827685        4.0069188867        9.3286744375
 Ca        10.2487189243        7.6319001514       11.9150468662
  O        13.7695015902        4.7106879554        1.1970838436
  O        13.6401318925        0.5751837560        6.7739588675
  O         5.5066031076        8.4969717984        3.9138771327
  O         5.4725012024        4.4235531615        9.5201126502
  O        11.5279429939        5.7556971598        2.0762532363
  O        11.5146875160        1.7166940445        7.6130060384
  O         3.3511262090        9.6054112829        4.7693106666
  O         3.3557998210        5.5855404946       10.2749743045
  P        13.0504064237        5.8148505592        1.9937666316
  P        13.0701183832        1.7497432000        7.6115528738
  P         4.9139488813        9.6153732483        4.8158531817
  P         4.8975302859        5.5476426532       10.4292688415
 Ca         6.1102985007        0.2764056347        6.5430134471
 Ca        14.2378046019        7.9863109677        3.6500137220
 Ca        14.2339772390        4.0768686389        9.3024229329
 Ca         6.0717427062        7.7227898178       11.9621449579
  O         3.9055649762        6.5231456308        2.4794919508
  O         3.9730848322        2.3990470156        8.0593041215
  O        12.1173479050       10.2889723899        5.2826159121
  O        12.1378068725        6.2634205264       10.9103889445
  O         3.7828032321        4.2951879994        1.0113718352
  O         3.8099778369        0.3230415151        6.5374338055
  O        12.0249378068        8.2171470617        3.8276973544
  O        11.9932004587        4.1567043431        9.3445750506
  P         2.9965211935        5.4449092290        1.7108287234
  P         3.0238425295        1.4089206349        7.3664515833
  P        11.1808944950        9.2687507900        4.5358975897
  P        11.1519032047        5.2030493782       10.1451106406
 Ca        16.1521364241        5.2305041070        1.6324468485
 Ca        16.2694227476        1.0136562132        7.0166968794
 Ca         8.2002181200        8.8143334358        4.3347836730
 Ca         8.0666006373        4.8014648623        9.9516294186
  O         1.3221205539        1.9415804091        3.4536313566
  O         9.4562781535        5.7838381343        6.2968746982
  O         9.4777565383        1.6067584614       11.8128775206
  O         1.2902210505        9.5764078588        9.1127355364
  O        15.3187342130        0.9783202786        2.8313780695
  O         7.1553442330        4.8532083780        5.6214037004
  O         7.2350072884        0.8038103886       11.1199115072
  O        15.3228200545        8.6826851140        8.3663104890
  P        16.0407385787        2.0968439465        3.5753340671
  P         7.9247477886        5.9521085772        6.4109700101
  P         7.8778031672        1.9170650545       12.0464344013
  P        16.0698152374        9.7582111581        9.2378915907
 Ca         6.0729833549        0.4719957042        2.4336204415
 Ca        14.1600114837        4.1273046689        4.9900230784
 Ca        14.2340188010        0.1021735621       10.6362923718
 Ca         6.0130411803        7.9125257635        7.8812188844
  O        10.8507396493        3.6908885963        4.7878994726
  O         2.6847553001        7.5357616017        7.5409355839
  O         2.5473900096        3.4082643245       13.1130306884
  O        10.8191766775       11.2900847500       10.3963787715
  O        12.9680706195        2.5360554171        4.0300867461
  O         4.8104789999        6.3928444553        6.6973048427
  O         4.7939565492        2.3575749232       12.2306875260
  O        12.9731609112       10.1912102793        9.5383627817
  P        11.4281135303        2.5644022172        3.8794276320
  P         3.2505462190        6.3641460967        6.6945162511
  P         3.2756434292        2.3073916358       12.3197205045
  P        11.4057920808       10.1710442637        9.4959182519
 Ca        10.2181886104        0.4044659688        2.3791942165
 Ca         2.0521421460        4.0613282931        5.0180055092
 Ca         2.1342418199        0.1009858945       10.6570936062
 Ca        10.2554120058        7.8260524935        7.7440106032
  O         4.1879646476        1.8534084237        3.3916860614
  O        12.3456747968        5.7172596631        6.2614196563
  O        12.4193089357        1.5860815685       11.8299597733
  O         4.2036011996        9.4915720579        9.0242840344
  O         4.3268192653        3.9553715534        4.9584246312
  O        12.5121159424        7.7863976803        7.7789152321
  O        12.5369779500        3.8160509727       13.2938036710
  O         4.2939191581       11.5628918816       10.4792968341
  P         5.1711933400        2.9067079817        4.1675899629
  P        13.3013459745        6.7067114161        6.9415148542
  P        13.3207580628        2.6706434209       12.5961267971
  P         5.1420237614       10.5116283937        9.7715809614
 Ca         8.2569822378        3.2550508844        4.3034511751
 Ca         0.0521196660        7.0775909095        7.2541495380
 Ca         0.1720122784        2.9899147182       12.7864671316
 Ca         8.1246943394       10.9883617408       10.0123664216
 Ca        13.6548039301        0.3944578233        4.3947777154
 Ca         5.4893311826        7.8764170108        1.6541728817
 Ca         5.4491463699        4.0561542526        7.1945007954
 Ca        13.6899708383        7.8277007917        9.8433807772
 Ca         2.7557541039        2.5102256129        1.7277105145
 Ca        10.8778331944        6.0889345986        4.2009712503
 Ca        10.8390955005        2.0930428914        9.9976606587
 Ca         2.7051858164        9.8907700764        7.1960158558
 Ca         2.6384970028        0.2826580304        4.4728177641
 Ca        10.8723888181        4.0532106549        7.1154667555
 Ca        10.8382219757        0.2468851459       12.6700595359
 Ca         2.6626331568        7.7210883238        9.9250270444
 Ca         5.4837835691        6.0238610513        4.3175410693
 Ca         5.4466400917        2.0237505093       10.1099083605
 Ca        13.6149004495        9.8819130502        7.1107338749
 Ca        13.5647769269        5.6102450650       12.6053074106
  O         8.1408837412       23.4472461695        5.4208353674
  O         0.0537977005        3.7235894651        8.4849286472
  O        -0.0123204859       22.2128299631       14.2975329078
  O         8.1626469676        7.5328612188       11.1596744694
  H         8.1712523694        0.2601927596        4.3383200355
  H        -0.0529723997        3.5551709033        7.2145105340
  H        -0.0137563809       22.7016726936       13.3818660145
  H         8.1813837610        7.4168290690       10.0423694661
  O         0.0723789878        5.8748380056        5.4413269313
  O         0.0515092735        1.5185780479       11.0631322377
  O         8.1597048140        9.5228543599        8.3824342367
  O         8.1949999701        4.8249812481       14.3850291864
  H        -0.0412710695        6.0663548287        4.3329926181
  H        -0.0574920142        1.5343211136       10.0866380625
  H         8.1675294947        9.4172674449        7.1910809374
  H         8.1530189541        5.0742454120       13.3890882870
  O         8.1295754349        1.2454272362        2.6977871581
  O        -0.0356837885        4.4008145857        6.0297075672
  O        -0.0590585588        0.2154302454       11.4885210817
  O         8.1829667863        8.1965095515        8.6761874232
  H         8.1637838763        0.9289396232        3.6498955430
  H         0.0368497259        4.4915464016        7.0199636259
  H         0.0549051359        0.0075221066       12.8519595742
  H         8.1302757205        8.3201118886        9.8262942018
  O         0.0165440205        7.2002411798        2.7846412747
  O        -0.0619256753        2.4173871197        8.7831032390
  O         8.1598496727       10.2720671331        6.0452320724
  O         8.2643230009        6.0772361876       11.7473339389
  H        -0.0005395646        6.7088780105        3.6622996830
  H         0.0543477594        2.5368858998        9.7631228334
  H         8.1663713755       10.3345972979        7.0476979786
  H         8.1035544410        5.7701712895       12.8315694267
  O         8.7848321520       18.0136257101        0.8249288872
  O         8.8935786276       13.9476129891        6.4319467564
  O         0.7638835753       21.7745385788        3.6256351360
  O         0.6831245266       17.7380414335        9.2033692120
  O        13.6169781249       18.8699524926        1.5457427330
  O        13.5491931829       14.8004022330        7.0970673588
  O         5.3934290891       22.6561998416        4.2207540444
  O         5.3627611883       18.6535848240        9.8665422885
  O         2.0336272821       17.9014025492        0.8331436801
  O         2.0872629602       13.7961886045        6.3463720014
  O        10.2226866641       21.7646366156        3.5724538544
  O        10.2882067235       17.6585759511        9.1172251637
  O        15.7470763633       15.2305079294        3.1437183675
  O         7.4387563131       19.0134217459        5.8935732068
  O         7.4929132198       14.9034193349       11.3200215834
  O        15.6140845541       22.8232759073        8.6645527490
  O        10.8810672751       14.1917833209        2.4479566523
  O         2.7944889425       18.1442446116        5.2157790634
  O         2.7669494139       14.0347553811       10.7326168446
  O        10.9455034030       21.9283354006        8.0257812003
  O         6.0649031915       15.2646991189        3.1530810632
  O        14.2078138289       19.1423443244        5.9651039492
  O        14.2294241265       15.0974968828       11.5182485845
  O         6.0779047530       22.8958214087        8.7343783911
  O        15.6355552809       13.6938748345        5.0998122411
  O         7.4380114323       17.5190398359        7.8917599355
  O         7.5261604729       13.4244581220       13.4798824811
  O        15.5390679404       21.3100858118       10.6732885745
  O        10.9688996234       12.7965512241        4.4394034227
  O         2.7752982932       16.6523669721        7.2292545049
  O         2.7144173879       12.5787313789       12.7584047296
  O        10.9341500680       20.4643725400       10.0865657558
  O         6.0259576690       13.7931386009        5.1975129076
  O        14.2381838840       17.6498879799        7.9704419036
  O        14.3013552858       13.5494273275       13.4684457648
  O         6.0961901738       21.3641724865       10.7315594957
  O         8.8201156363       16.5355565700        2.9818496673
  O         8.8786001751       12.4256396353        8.4142071500
  O         0.7202288839       20.3207236825        5.6756939088
  O         0.5782986232       16.2084038707       11.1657817292
  O        13.5593943061       17.4175251586        3.5702286469
  O        13.5424900700       13.3034025644        9.0954168335
  O         5.3725848311       21.1995546480        6.2840812380
  O         5.4273806461       17.2563905953       11.8606884845
  O         2.0909117313       16.3493264819        2.7840665045
  O         2.0992163557       12.3109607814        8.3480043550
  O        10.2486130371       20.2268400661        5.5807365512
  O        10.2759829426       16.1593261062       11.1498349958
  O         6.8385584588       18.1637313270        2.4928068348
  O         6.8654468458       14.0007028355        8.0146249979
  O        15.0325169418       21.8724055213        5.1979664576
  O        15.0040742687       17.8310401217       10.8545620178
  O         9.0876580613       18.9805895704        3.2003495586
  O         9.1715808667       14.9195141034        8.6915846181
  O         1.0015090397       22.7683814688        5.9380925121
  O         1.0104224449       18.7905102415       11.4751789003
  P         8.4515006571       17.8665403606        2.2609377850
  P         8.3978857981       13.8278705525        7.8907357726
  P         0.2549277752       21.6807140509        5.0707434498
  P         0.2783761687       17.6865864845       10.7308749865
 Ca        10.2731320967       11.8627796356        6.4083597405
 Ca         2.0188874825       19.6484361235        3.6778045105
 Ca         2.1984983657       15.6750621599        9.3292072689
 Ca        10.2423080177       19.2967830448       11.9129561727
  O        13.7686439703       16.3784120419        1.1965462153
  O        13.6400914043       12.2426139028        6.7737881909
  O         5.5063772155       20.1640591672        3.9137683772
  O         5.4722614218       16.0907562412        9.5199904972
  O        11.5281294133       17.4228814350        2.0755113311
  O        11.5146001657       13.3843081158        7.6128638478
  O         3.3511315580       21.2719087608        4.7689781251
  O         3.3556837321       17.2533241337       10.2750219132
  P        13.0507754098       17.4823238434        1.9947410129
  P        13.0702606862       13.4176631867        7.6113783809
  P         4.9143195503       21.2821658116        4.8163352008
  P         4.8977675119       17.2159121098       10.4291573844
 Ca         6.1081797673       11.9452575722        6.5439805596
 Ca        14.2377893801       19.6543935848        3.6507146739
 Ca        14.2338347941       15.7450534636        9.3026441449
 Ca         6.0710350915       19.3909052116       11.9626528409
  O         3.9055112985       18.1910190848        2.4795964957
  O         3.9727722685       14.0663988499        8.0592680331
  O        12.1181089237       21.9566341240        5.2824388641
  O        12.1379821397       17.9305425302       10.9105740163
  O         3.7827957257       15.9631756854        1.0110281097
  O         3.8104121825       11.9902799128        6.5375765848
  O        12.0249539517       19.8847670751        3.8273866971
  O        11.9935166808       15.8241089442        9.3442464597
  P         2.9967476003       17.1124399331        1.7109012646
  P         3.0236382066       13.0766352930        7.3662210283
  P        11.1807621151       20.9361339436        4.5362157723
  P        11.1516003929       16.8701059663       10.1455481615
 Ca        16.1529784942       16.8981199747        1.6325613252
 Ca        16.2695111803       12.6809389593        7.0159274491
 Ca         8.2001116759       20.4813283553        4.3332536234
 Ca         8.0661999574       16.4716551163        9.9549846474
  O         1.3220826794       13.6092847536        3.4537479500
  O         9.4565232934       17.4519300039        6.2968578161
  O         9.4778085453       13.2741321084       11.8127779220
  O         1.2902535614       21.2441966895        9.1127452878
  O        15.3187742525       12.6458458094        2.8314883708
  O         7.1555768546       16.5203741293        5.6214665315
  O         7.2353229599       12.4702734248       11.1207415596
  O        15.3227909106       20.3501861116        8.3665184778
  P        16.0407301530       13.7647003835        3.5755793032
  P         7.9245484969       17.6204798252        6.4112401317
  P         7.8781915661       13.5857532445       12.0457806770
  P        16.0698766121       21.4256866323        9.2382397541
 Ca         6.0735982424       12.1397387525        2.4331999816
 Ca        14.1618144717       15.7951620535        4.9907366171
 Ca        14.2352518618       11.7698029152       10.6362279159
 Ca         6.0152727733       19.5802365048        7.8816534115
  O        10.8506440920       15.3583439136        4.7876737058
  O         2.6846469837       19.2033884626        7.5407901221
  O         2.5476296601       15.0756574532       13.1127691982
  O        10.8188174702       22.9578289093       10.3964783559
  O        12.9679383128       14.2037810762        4.0303011218
  O         4.8104325067       18.0603249284        6.6972187135
  O         4.7940555247       14.0246506082       12.2306355648
  O        12.9730500492       21.8590836925        9.5379233339
  P        11.4282414558       14.2321136456        3.8794089801
  P         3.2505961988       18.0315710502        6.6945510621
  P         3.2753738597       13.9751480772       12.3203230919
  P        11.4055804534       21.8377728534        9.4957118282
 Ca        10.2181708476       12.0722781723        2.3789195924
 Ca         2.0512104606       15.7298753259        5.0182922704
 Ca         2.1331441981       11.7688924523       10.6572763075
 Ca        10.2572864681       19.4927174590        7.7426804419
  O         4.1880589058       13.5199357963        3.3921333053
  O        12.3457575498       17.3840960681        6.2614356006
  O        12.4198447146       13.2534621981       11.8302470241
  O         4.2026632880       21.1593915504        9.0242239618
  O         4.3268941321       15.6225808752        4.9582826782
  O        12.5126918722       19.4535806071        7.7789655823
  O        12.5367600812       15.4835407035       13.2938036304
  O         4.2944602796       23.2306511806       10.4792076370
  P         5.1710138802       14.5739511996        4.1675801099
  P        13.3016193338       18.3737921572        6.9416710463
  P        13.3204235549       14.3388452433       12.5960064090
  P         5.1423917507       22.1785346958        9.7717475258
 Ca         8.2567572648       14.9233594725        4.3033965014
 Ca         0.0524402396       18.7436427727        7.2520633231
 Ca         0.1718789249       14.6574895469       12.7857796471
 Ca         8.1248636366       22.6552667789       10.0122247719
 Ca        13.6550644652       12.0622007022        4.3944060020
 Ca         5.4901775164       19.5448083387        1.6535467878
 Ca         5.4491404374       15.7243140916        7.1944127766
 Ca        13.6896423208       19.4955589092        9.8432072009
 Ca         2.7557919688       14.1785612200        1.7274824073
 Ca        10.8772462223       17.7567532425        4.2015445439
 Ca        10.8388334810       13.7606720589        9.9975663207
 Ca         2.7055768966       21.5583188744        7.1959953440
 Ca         2.6379909852       11.9511624854        4.4731033355
 Ca        10.8720898479       15.7210837947        7.1154747311
 Ca        10.8376727908       11.9138211937       12.6696667174
 Ca         2.6631090821       19.3888942682        9.9248110324
 Ca         5.4838162127       17.6914517325        4.3175647413
 Ca         5.4469462886       13.6921572078       10.1097672592
 Ca        13.6147723071       21.5491334666        7.1106561391
 Ca        13.5649028335       17.2778218439       12.6051180442
  O         8.1304317428       11.7794164584        5.4217762878
  O         0.0572959517       15.3897112301        8.4822366228
  O        -0.0117359876       10.5231473358       14.2931424603
  O         8.1583180054       19.2172017334       11.1469545492
  H         8.1789347506       11.9355906574        4.3387172034
  H        -0.0531203065       15.2255198624        7.2270012968
  H        -0.0151291704       11.0664225465       13.4111497210
  H         8.1986781444       19.0888651592       10.0481714306
  O         0.0730949490       17.5525651599        5.4308778911
  O         0.0551318657       13.1824102038       11.0746466444
  O         8.1530994333       21.1891003758        8.3770698589
  O         8.2005815196       16.4901921373       14.3848300688
  H        -0.0420001469       17.7365726262        4.3372790906
  H        -0.0582045765       13.2070074390       10.1009334280
  H         8.1675673570       21.0811968654        7.1849819394
  H         8.1462768419       16.7420843785       13.3957010976
  O         8.1297387719       12.9148047129        2.6909825460
  O        -0.0335493783       16.0510515549        6.0333977151
  O        -0.0582826548       11.8792097901       11.4949881847
  O         8.1971418232       19.8613313954        8.6828164180
  H         8.1607015294       12.5946319510        3.6476747037
  H         0.0347420564       16.1629371182        7.0063750346
  H         0.0541425967       11.6633707383       12.8364713256
  H         8.1142532413       19.9972443501        9.8360714109
  O         0.0151660119       18.8654560637        2.7856812847
  O        -0.0682455767       14.0825446027        8.7806504815
  O         8.1561788478       21.9264541548        6.0480598195
  O         8.2766592978       17.7331713809       11.7595091276
  H         0.0000686499       18.3791050295        3.6589920499
  H         0.0553185132       14.2091805367        9.7608765114
  H         8.1716321763       22.0060032211        7.0510554901
  H         8.0982825349       17.4374494963       12.8229416115
  O         8.3807012624        9.2230733268       18.1873812256
  C         8.0456957618       10.4216908247       18.2318813469
  O         7.6822162263       11.7378719813       18.2763471968
     387
 i =       10, E =     -6919.4780544590
  O         8.7723839260        6.3462652225        0.8167224572
  O         8.9037989055        2.2983893997        6.4370063839
  O         0.7718993038       10.1093447389        3.6298874074
  O         0.6813706763        6.0821206718        9.2187754170
  O        13.6299753910        7.2025347022        1.5574982211
  O        13.5492104954        3.1295768775        7.1083728579
  O         5.3929791981       10.9876563966        4.2097021500
  O         5.3596909934        6.9820804545        9.8691543355
  O         2.0314952469        6.2290899490        0.8271497142
  O         2.0876068295        2.1216835293        6.3473479357
  O        10.2204478417       10.1003630928        3.5793194032
  O        10.2925254983        5.9932672710        9.1258624958
  O        15.7651638423        3.5556681839        3.1529067218
  O         7.4371984546        7.3406970517        5.9028823616
  O         7.5060383353        3.2191522977       11.3145611455
  O        15.6162661975       11.1570139671        8.6794659919
  O        10.8792915371        2.5173735215        2.4529054910
  O         2.8007927887        6.4772716573        5.2126438179
  O         2.7680230111        2.3623333658       10.7359678779
  O        10.9493880856       10.2607373772        8.0351008872
  O         6.0583695579        3.5865787904        3.1534088316
  O        14.1981734514        7.4817861104        5.9686748452
  O        14.2205912492        3.4388708674       11.5297158972
  O         6.0714087973       11.2253415851        8.7462379954
  O        15.6341443181        2.0094985298        5.0811585701
  O         7.4330851829        5.8418943989        7.8906612470
  O         7.5391887950        1.7527274332       13.4862541163
  O        15.5199529628        9.6299716626       10.6681715918
  O        10.9755323697        1.1332562325        4.4355726198
  O         2.7755307452        4.9918592430        7.2212688282
  O         2.6913911071        0.9080359174       12.7404091740
  O        10.9344224676        8.7991065026       10.0927386432
  O         6.0204574970        2.1226912273        5.1869816907
  O        14.2374760437        5.9907409396        7.9709629388
  O        14.3084167824        1.8823309277       13.4667869651
  O         6.0968454946        9.6987050889       10.7243482568
  O         8.8084269633        4.8829891494        2.9907230056
  O         8.8777602339        0.7622009131        8.4041969182
  O         0.7222757870        8.6618910301        5.6752258407
  O         0.5582267613        4.5441519913       11.1555865136
  O        13.5593326164        5.7542033374        3.5634957590
  O        13.5424074091        1.6341046830        9.0978575903
  O         5.3681639987        9.5384905109        6.2747867730
  O         5.4217775819        5.5976821100       11.8577400696
  O         2.0984280772        4.6769128580        2.7730416229
  O         2.1054920823        0.6402464882        8.3447322106
  O        10.2577196012        8.5636553319        5.5684020339
  O        10.2898098850        4.4921266846       11.1491158710
  O         6.8435290969        6.5019762638        2.4957686362
  O         6.8711780527        2.3334991905        8.0161746735
  O        15.0403181146       10.2082368865        5.1917762072
  O        15.0102571133        6.1674406493       10.8584881795
  O         9.0856471117        7.2987293051        3.2007396546
  O         9.1751169413        3.2465204582        8.6914653186
  O         1.0005531677       11.0894806866        5.9338124554
  O         1.0059991926        7.1195342676       11.4739752733
  P         8.4507860273        6.2008628543        2.2555685486
  P         8.4018096587        2.1580951724        7.8865206235
  P         0.2544991749       10.0068645443        5.0647383076
  P         0.2689671452        6.0214942270       10.7309787216
 Ca        10.2796134987        0.1961541306        6.4018042620
 Ca         2.0129872052        7.9799251208        3.6828056680
 Ca         2.2291352053        4.0091982457        9.3417032539
 Ca        10.2577068809        7.5991098431       11.8951918234
  O        13.7947130062        4.7227087563        1.2003449566
  O        13.6388363644        0.5767059559        6.7776188629
  O         5.5079525064        8.5031613464        3.9028928090
  O         5.4691189531        4.4342790883        9.5289098552
  O        11.5404599131        5.7445293551        2.0728699811
  O        11.5207492623        1.7175036701        7.6159746508
  O         3.3597920906        9.6096613953        4.7651127108
  O         3.3690520474        5.5970330572       10.2708057733
  P        13.0587933571        5.8211055627        1.9868547107
  P        13.0731943005        1.7501465839        7.6175984873
  P         4.9182567104        9.6199559128        4.8098867806
  P         4.9046441628        5.5596914896       10.4263084229
 Ca         6.1022416699        0.2809562442        6.5516625386
 Ca        14.2284228080        7.9726678072        3.6341845384
 Ca        14.2160121244        4.0875458731        9.3034507500
 Ca         6.0486078487        7.7135863212       11.9551374701
  O         3.8903972848        6.5176569952        2.4673073413
  O         3.9749051976        2.3963740717        8.0547552149
  O        12.1142452757       10.2939458597        5.2809035714
  O        12.1283775561        6.2575746626       10.9219483440
  O         3.7756782824        4.3066409763        1.0088987127
  O         3.8074334776        0.3270415525        6.5391978589
  O        12.0147549201        8.2301098103        3.8300564920
  O        11.9872189818        4.1656050716        9.3502499672
  P         2.9864124453        5.4493629550        1.7074618145
  P         3.0237069347        1.4087959855        7.3680026185
  P        11.1793365214        9.2818003375        4.5378158592
  P        11.1548008452        5.2125574478       10.1471608794
 Ca        16.1188281890        5.2396187575        1.6260407393
 Ca        16.2668186766        0.9819855068        6.9796512756
 Ca         8.2062972472        8.7852504752        4.3204935596
 Ca         8.0559393280        4.7679597199        9.9418926036
  O         1.3147658819        1.9345899327        3.4505770028
  O         9.4518755877        5.7862595479        6.2968651296
  O         9.4721656344        1.6022412986       11.8092395561
  O         1.2817536135        9.5717109358        9.1203041807
  O        15.3239024023        0.9793207792        2.8308720366
  O         7.1561734868        4.8555840068        5.6226099002
  O         7.2310709703        0.8201129894       11.1238528475
  O        15.3248772439        8.6962262233        8.3678656303
  P        16.0511893628        2.0901257593        3.5713855301
  P         7.9218279078        5.9521877576        6.4162733864
  P         7.8775559592        1.9145613061       12.0529307457
  P        16.0684111696        9.7653381316        9.2424323380
 Ca         6.0550184295        0.4978078771        2.4581282276
 Ca        14.1514951150        4.1325667098        4.9785894739
 Ca        14.2042171899        0.0940785210       10.6236403484
 Ca         5.9856290246        7.9079407703        7.8747525301
  O        10.8528355954        3.6824636936        4.7780167122
  O         2.6871316471        7.5330966746        7.5380103163
  O         2.5177529531        3.3955240979       13.1090903646
  O        10.8198066889       11.2867154712       10.4083135568
  O        12.9558719932        2.5260663733        4.0336028435
  O         4.8055735827        6.3893309177        6.6953112378
  O         4.7809369591        2.3660855758       12.2318240129
  O        12.9641313501       10.1899386387        9.5403954223
  P        11.4241678946        2.5567527685        3.8816726108
  P         3.2461811966        6.3626949818        6.6881702896
  P         3.2673096442        2.3016163600       12.3246868337
  P        11.3988147590       10.1657193870        9.5026366524
 Ca        10.2332322361        0.4147654465        2.3897641049
 Ca         2.0497202948        4.0636923800        5.0171452093
 Ca         2.1625015769        0.1135888492       10.6687816831
 Ca        10.2853331025        7.8165386730        7.7205990089
  O         4.2002551504        1.8597947742        3.3821667447
  O        12.3412252498        5.7208953001        6.2690871759
  O        12.4371435998        1.5956880490       11.8415197588
  O         4.2060267824        9.4836668848        9.0259682130
  O         4.3326239673        3.9504739621        4.9510532168
  O        12.5162495727        7.7824966761        7.7783655131
  O        12.5457782932        3.8016422637       13.2949666100
  O         4.3067211477       11.5513912531       10.4762861239
  P         5.1652759574        2.8979631963        4.1659373361
  P        13.3029397745        6.7052583150        6.9414570602
  P        13.3310050050        2.6652973901       12.5961196533
  P         5.1451732889       10.4991180376        9.7679731865
 Ca         8.2641149270        3.2716396512        4.2942261186
 Ca         0.0544009857        7.1064485096        7.2729437067
 Ca         0.2129354481        3.0145360607       12.8222524290
 Ca         8.1215230476       11.0323608561       10.0481804780
 Ca        13.6646917224        0.4070374337        4.4006943497
 Ca         5.5065706758        7.8452836867        1.6523226941
 Ca         5.4508279251        4.0571677366        7.1994701804
 Ca        13.7036142146        7.8248150342        9.8295428612
 Ca         2.7502776968        2.5434870637        1.7578656159
 Ca        10.8755701543        6.0896187393        4.1696607908
 Ca        10.8291062988        2.1015663689       10.0043337652
 Ca         2.7058557763        9.8919405601        7.2029645535
 Ca         2.6251034584        0.2878876198        4.4842866407
 Ca        10.8686770512        4.0498082496        7.1073483462
 Ca        10.8203527519        0.2772355957       12.6750670842
 Ca         2.6543817581        7.7097723425        9.9168719503
 Ca         5.4915803698        6.0161415556        4.3093592080
 Ca         5.4475575723        2.0238146805       10.1409855488
 Ca        13.6127405260        9.8791654621        7.0987084676
 Ca        13.5663485261        5.5789169125       12.5775382943
  O         8.1434863480       23.5206859575        5.3883335403
  O         0.0621639294        3.7336023803        8.4994059951
  O        -0.0128984395       22.1863148602       14.3564448713
  O         8.1649670913        7.6071760975       11.0856960105
  H         8.1705332738        0.2724637821        4.4233668241
  H        -0.0552622316        3.5610943214        7.1946725083
  H        -0.0216329654       22.6307256237       13.4048982568
  H         8.1812739012        7.4258667138       10.1066540429
  O         0.0884195827        5.9225003671        5.3754745894
  O         0.0549333355        1.4894459918       11.0394740716
  O         8.1655411700        9.5003263107        8.3691621207
  O         8.2046975344        4.8274265921       14.4525602538
  H        -0.0440036681        6.0766915652        4.4224675353
  H        -0.0569290436        1.5168271918       10.1058095769
  H         8.1651758324        9.4229333403        7.1750127407
  H         8.1482859944        4.9736764535       13.4285847508
  O         8.1245271255        1.2509827622        2.6281042817
  O        -0.0410331579        4.3321004388        6.1073112126
  O        -0.0600596589        0.1920810851       11.4479425658
  O         8.1723388905        8.1796908770        8.6754886165
  H         8.1632340720        0.9956651868        3.6061199055
  H         0.0371473806        4.4908744343        6.9911642053
  H         0.0651806796       -0.0023348832       12.8180443718
  H         8.1297233333        8.3244319996        9.8082217769
  O         0.0179396081        7.2359082033        2.7295429198
  O        -0.0762072533        2.4424706118        8.8311892271
  O         8.1592015968       10.2256954764        6.1169113449
  O         8.2857160387        6.0015441890       11.7846323737
  H         0.0009163714        6.7688032422        3.6178998993
  H         0.0592342913        2.5325824677        9.7327107713
  H         8.1689236348       10.3496066926        7.0203531633
  H         8.0995739222        5.7718976717       12.7805555356
  O         8.7712722906       18.0153271329        0.8163007419
  O         8.9035951416       13.9647424911        6.4366975151
  O         0.7717927689       21.7775424565        3.6297202710
  O         0.6808257776       17.7492084916        9.2189924628
  O        13.6298435202       18.8701816350        1.5584215869
  O        13.5493418883       14.7968018706        7.1090074683
  O         5.3930741186       22.6555501662        4.2098690089
  O         5.3583787335       18.6493389424        9.8690780311
  O         2.0314677645       17.8969730865        0.8273169609
  O         2.0875914342       13.7875721946        6.3473447004
  O        10.2210023064       21.7685811008        3.5786684267
  O        10.2928045010       17.6603754981        9.1264272481
  O        15.7649960661       15.2231050745        3.1523543749
  O         7.4364459858       19.0072538335        5.9011698973
  O         7.5060031086       14.8854878905       11.3143136837
  O        15.6158653009       22.8243831752        8.6785375204
  O        10.8793225000       14.1839080780        2.4528935439
  O         2.8014159669       18.1450119312        5.2124811430
  O         2.7677754071       14.0288948070       10.7360947969
  O        10.9491922317       21.9275333188        8.0350811524
  O         6.0583984261       15.2529465972        3.1531446601
  O        14.1975816810       19.1493930874        5.9685870523
  O        14.2205438139       15.1059945571       11.5295948461
  O         6.0712301266       22.8934634204        8.7459025275
  O        15.6335556170       13.6758560754        5.0804277587
  O         7.4334242429       17.5093482197        7.8903800635
  O         7.5385519292       13.4220036626       13.4863704502
  O        15.5202655195       21.2976029201       10.6686846992
  O        10.9750259206       12.8005105377        4.4362486562
  O         2.7759809668       16.6593734475        7.2218842646
  O         2.6915039644       12.5747336202       12.7408943670
  O        10.9355398754       20.4673617550       10.0935923969
  O         6.0205743999       13.7898757298        5.1872187657
  O        14.2373651182       17.6577467818        7.9710059692
  O        14.3092111479       13.5501099196       13.4668463852
  O         6.0951714089       21.3667621707       10.7238755799
  O         8.8088299499       16.5506677956        2.9898743836
  O         8.8774836447       12.4288990627        8.4041857359
  O         0.7225039214       20.3308489087        5.6750910787
  O         0.5580421249       16.2113994751       11.1559345261
  O        13.5589898010       17.4217430052        3.5627345558
  O        13.5424160662       13.3006480315        9.0982317084
  O         5.3670161061       21.2045487179        6.2747576899
  O         5.4221228964       17.2644248843       11.8576269712
  O         2.0986672596       16.3443991404        2.7724312122
  O         2.1054002259       12.3073245137        8.3452232533
  O        10.2589048261       20.2316647523        5.5676144875
  O        10.2915895075       16.1554870837       11.1485642515
  O         6.8437760695       18.1695835116        2.4959928697
  O         6.8710885493       14.0004667495        8.0161438041
  O        15.0402426494       21.8761412579        5.1915650042
  O        15.0101971574       17.8350607500       10.8587516517
  O         9.0871648539       18.9651917221        3.2008787987
  O         9.1750768646       14.9137505428        8.6913179379
  O         1.0005864198       22.7579537595        5.9337009360
  O         1.0058825619       18.7870329610       11.4743430395
  P         8.4507895141       17.8688800057        2.2564164000
  P         8.4017866027       13.8263546357        7.8866408929
  P         0.2546782634       21.6744660872        5.0650065152
  P         0.2690994612       17.6896990530       10.7304497138
 Ca        10.2791923315       11.8647070799        6.4019955273
 Ca         2.0125587241       19.6467606827        3.6836679786
 Ca         2.2304662530       15.6779182095        9.3419230055
 Ca        10.2473779689       19.2617178922       11.8922847545
  O        13.7936462218       16.3905277950        1.1995782037
  O        13.6387736662       12.2439601255        6.7776157146
  O         5.5076691378       20.1704346880        3.9025819908
  O         5.4686553313       16.1012799187        9.5288947234
  O        11.5404154112       17.4119176288        2.0720823830
  O        11.5208281833       13.3847566736        7.6158312472
  O         3.3598667598       21.2761793070        4.7645181632
  O         3.3688313199       17.2645659596       10.2709416136
  P        13.0591979274       17.4884932079        1.9882210329
  P        13.0732123040       13.4181676358        7.6174324613
  P         4.9184279313       21.2864780051        4.8103775086
  P         4.9051530390       17.2280056303       10.4262423368
 Ca         6.0989433332       11.9508990271        6.5529383278
 Ca        14.2285063493       19.6407222050        3.6354546259
 Ca        14.2162989713       15.7560143081        9.3032355530
 Ca         6.0492660882       19.3810810044       11.9550096970
  O         3.8904504583       18.1858358908        2.4672037013
  O         3.9746484467       14.0634578828        8.0548309890
  O        12.1151807009       21.9616745335        5.2805155230
  O        12.1286998214       17.9246797532       10.9222830476
  O         3.7757731363       15.9746822179        1.0085004950
  O         3.8077957374       11.9940987364        6.5394457036
  O        12.0148432811       19.8977883620        3.8296117870
  O        11.9877666457       15.8328569521        9.3497698539
  P         2.9865707808       17.1169079287        1.7075690983
  P         3.0235113043       13.0767098859        7.3676973489
  P        11.1794820315       20.9491953191        4.5379103207
  P        11.1541725680       16.8795125006       10.1474963735
 Ca        16.1201097763       16.9069641213        1.6263060060
 Ca        16.2669343396       12.6498735429        6.9784116449
 Ca         8.2061926213       20.4519096776        4.3187978901
 Ca         8.0555136926       16.4402244890        9.9470513277
  O         1.3147674408       13.6020379953        3.4507205398
  O         9.4521319812       17.4543226450        6.2966735748
  O         9.4720019212       13.2695668682       11.8092057616
  O         1.2818156197       21.2395323467        9.1203267013
  O        15.3238793182       12.6467178353        2.8308100907
  O         7.1565357384       16.5226694485        5.6225506129
  O         7.2313185248       12.4862684639       11.1252955117
  O        15.3248991537       20.3637032776        8.3680151665
  P        16.0510765747       13.7580475599        3.5715550056
  P         7.9214904098       17.6201977161        6.4170747006
  P         7.8783781808       13.5834092005       12.0518585097
  P        16.0683830843       21.4329731036        9.2426719773
 Ca         6.0558737219       12.1659632324        2.4573639065
 Ca        14.1545104762       15.8009637951        4.9799123024
 Ca        14.2044758987       11.7614499426       10.6230206144
 Ca         5.9906664358       19.5761274160        7.8761887141
  O        10.8526379450       15.3498449036        4.7777292226
  O         2.6869758980       19.2008033754        7.5379039153
  O         2.5178795222       15.0631062001       13.1087828266
  O        10.8192002023       22.9544208891       10.4088037836
  O        12.9557339239       14.1936264253        4.0338146064
  O         4.8056298468       18.0567741288        6.6952234147
  O         4.7807152248       14.0333512813       12.2317883768
  O        12.9639010326       21.8578446241        9.5397945028
  P        11.4243011976       14.2244134771        3.8817720041
  P         3.2462846313       18.0300859680        6.6881052083
  P         3.2677017556       13.9692647440       12.3254731383
  P        11.3987346988       21.8320691608        9.5021394457
 Ca        10.2330484307       12.0827002952        2.3893429178
 Ca         2.0479393040       15.7328910748        5.0178105138
 Ca         2.1625107334       11.7814237598       10.6687065089
 Ca        10.2867346885       19.4832066726        7.7192699065
  O         4.2003779891       13.5263048241        3.3826365587
  O        12.3413849022       17.3877014337        6.2691085816
  O        12.4379154234       13.2628628311       11.8417302637
  O         4.2048065764       21.1517555073        9.0259764199
  O         4.3327395531       15.6176129958        4.9508879061
  O        12.5171447462       19.4498549633        7.7785125510
  O        12.5455970392       15.4689498207       13.2950398168
  O         4.3074778739       23.2194353877       10.4761111408
  P         5.1650436943       14.5651632338        4.1660538892
  P        13.3033493477       18.3722425761        6.9415091434
  P        13.3303494647       14.3333167972       12.5960921264
  P         5.1453520395       22.1659751518        9.7679418513
 Ca         8.2637428569       14.9399254847        4.2941760841
 Ca         0.0547177710       18.7711769853        7.2694163783
 Ca         0.2128653095       14.6840608583       12.8224503075
 Ca         8.1215753101       22.6972127251       10.0464710831
 Ca        13.6651589997       12.0752642299        4.4001483043
 Ca         5.5075554491       19.5138706634        1.6517365747
 Ca         5.4509388661       15.7257685038        7.1994288557
 Ca        13.7032481283       19.4925363020        9.8291082794
 Ca         2.7503670617       14.2118623395        1.7575369932
 Ca        10.8748190059       17.7574898828        4.1705499164
 Ca        10.8287509159       13.7697596402       10.0043453370
 Ca         2.7062997700       21.5590434189        7.2030756598
 Ca         2.6245341477       11.9569444998        4.4845305256
 Ca        10.8683055614       15.7180075619        7.1074998133
 Ca        10.8194518530       11.9432139693       12.6750146654
 Ca         2.6551197955       19.3775079232        9.9164950160
 Ca         5.4915759276       17.6838465996        4.3098014315
 Ca         5.4480516959       13.6927976124       10.1408441531
 Ca        13.6127111599       21.5461288989        7.0987808119
 Ca        13.5662868167       17.2464749440       12.5772077294
  O         8.1321501722       11.8564922746        5.3900280877
  O         0.0663160384       15.3988381088        8.4940683548
  O        -0.0123960323       10.4921383527       14.3529963840
  O         8.1652869004       19.2930781508       11.0701985152
  H         8.1788786894       11.9496325572        4.4240278598
  H        -0.0547089428       15.2335700293        7.2052822707
  H        -0.0236874487       11.0086776474       13.4437618921
  H         8.1988213534       19.0978475486       10.1148739519
  O         0.0885529177       17.6027084757        5.3647437201
  O         0.0604184213       13.1524901272       11.0605172291
  O         8.1599353390       21.1638824002        8.3589945364
  O         8.2130815793       16.4902516056       14.4536154617
  H        -0.0448216092       17.7457574363        4.4257392077
  H        -0.0575889226       13.1878626559       10.1222663121
  H         8.1638836249       21.0894481532        7.1651997492
  H         8.1388936295       16.6415154200       13.4377691638
  O         8.1245232840       12.9210414552        2.6195323638
  O        -0.0387265513       15.9794666342        6.1031424370
  O        -0.0596310603       11.8562401103       11.4491627425
  O         8.1896191746       19.8457491213        8.6876626606
  H         8.1589641453       12.6610805156        3.6021069809
  H         0.0358330812       16.1664944125        6.9833379333
  H         0.0649070339       11.6507903780       12.7928346335
  H         8.1129326639       20.0013502143        9.8239003384
  O         0.0166067234       18.9009832247        2.7308358592
  O        -0.0834391523       14.1053771608        8.8329334330
  O         8.1568509766       21.8827721681        6.1191301018
  O         8.3008999902       17.6589523428       11.7969286096
  H         0.0017550209       18.4390991844        3.6147292179
  H         0.0598060047       14.2053171467        9.7303064160
  H         8.1745082638       22.0180293220        7.0227244695
  H         8.0960880580       17.4385491816       12.7661289363
  O         8.3973324531        9.1271244135       18.1855465194
  C         8.0317383007       10.4621473347       18.2342888316
  O         7.6783907596       11.7773569081       18.2781595454
