
#(C) 2024 by FIZ Karlsruhe - Leibniz Institute for Information Infrastructure.  All rights reserved.
data_26205-ICSD
_database_code_ICSD 26205
_audit_creation_date 1980-01-01
_audit_update_record 1999-06-02
_chemical_name_common 'Calcium dihydroxide hexakis(phosphate)'
_chemical_formula_structural 'Ca10 (P O4)6 (O H)2'
_chemical_formula_sum 'H2 Ca10 O26 P6'
_chemical_name_structure_type Ca5(PO4)3(OH)-[P63/m]
_chemical_name_mineral Hydroxylapatite
_exptl_crystal_density_diffrn 3.15
_citation_title

;
Significant Precision in Crystal Structural Details: Holly Springs
Hydroxyapatite
;
loop_
_citation_id
_citation_journal_full
_citation_year
_citation_journal_volume
_citation_page_first
_citation_page_last
_citation_journal_id_ASTM
primary

;
Acta Crystallographica, Section B: Structural Crystallography and Crystal
Chemistry
; 1969 25 1534 1543 ACBCAR
loop_
_citation_author_citation_id
_citation_author_name
primary 'Sudarsanan, K.'
primary 'Young, R.A.'
_cell_length_a 9.424(4)
_cell_length_b 9.424(4)
_cell_length_c 6.879(4)
_cell_angle_alpha 90.
_cell_angle_beta 90.
_cell_angle_gamma 120.
_cell_volume 529.09
_cell_formula_units_Z 1
_space_group_name_H-M_alt 'P 63/m'
_space_group_IT_number 176
loop_
_space_group_symop_id
_space_group_symop_operation_xyz
1 '-x+y, -x, -z+1/2'
2 '-y, x-y, -z+1/2'
3 'x, y, -z+1/2'
4 'x-y, x, -z'
5 'y, -x+y, -z'
6 '-x, -y, -z'
7 'x-y, x, z+1/2'
8 'y, -x+y, z+1/2'
9 '-x, -y, z+1/2'
10 '-x+y, -x, z'
11 '-y, x-y, z'
12 'x, y, z'
loop_
_atom_type_symbol
_atom_type_oxidation_number
O2- -2
P5+ 5
Ca2+ 2
O2- -2
H1+ 1
loop_
_atom_site_label
_atom_site_type_symbol
_atom_site_symmetry_multiplicity
_atom_site_Wyckoff_symbol
_atom_site_fract_x
_atom_site_fract_y
_atom_site_fract_z
_atom_site_B_iso_or_equiv
_atom_site_occupancy
O1 O2- 6 h 0.3282(2) 0.4846(1) 0.25 . 1.
O2 O2- 6 h 0.5876(1) 0.4652(1) 0.25 . 1.
O3 O2- 12 i 0.3433(1) 0.2579(1) 0.0704(1) . 1.
P1 P5+ 6 h 0.3983(1) 0.3683(1) 0.25 . 1.
Ca1 Ca2+ 4 f 0.3333 0.6667 0.0013(1) . 1.
Ca2 Ca2+ 6 h 0.2465(1) 0.9931(1) 0.25 . 1.
O4 O2- 4 e 0 0 0.1978(7) . 0.5
H1 H1+ 4 e 0 0 0.0608(14) . 0.5
loop_
_atom_site_aniso_label
_atom_site_aniso_type_symbol
_atom_site_aniso_beta_11
_atom_site_aniso_beta_22
_atom_site_aniso_beta_33
_atom_site_aniso_beta_12
_atom_site_aniso_beta_13
_atom_site_aniso_beta_23
O1 O2- 0.0035(1) 0.0028(1) 0.0044(2) 0.0024(1) 0 0
O2 O2- 0.0020(1) 0.0024(1) 0.0089(2) 0.0009(1) 0 0
O3 O2- 0.0084(1) 0.0039(1) 0.0044(1) 0.0043(2) -0.0034(2) -0.0021(1)
P1 P5+ 0.0018(1) 0.0020(1) 0.0026(2) 0.0009(1) 0 0
Ca1 Ca2+ 0.0033(1) 0.0033(1) 0.0024(2) 0.0017(1) 0 0
Ca2 Ca2+ 0.0024(1) 0.0025(2) 0.0030(2) 0.0012(1) 0 0
O4 O2- 0.0025(2) 0.0025(2) 0.0101(8) 0.0013(2) 0 0
H1 H1+ 0.0129(8) 0.0129(8) 0.0104(12) 0.0065(8) 0 0
#End of TTdata_26205-ICSD