# TEMPLATE FILE: Template-in.deepmd.lammps
# This file will be processed by generate_config.py
# Placeholder: hap_hkl.data -> hap_{hkl_param}.data

# ENHANCED LAMMPS input file for comprehensive CO2-HAP adsorption analysis
# MODIFIED: High-temperature (700 C) reaction conditions with NUMERICAL STABILITY FIXES
# ENHANCED: Surface model adaptation and comprehensive surface analysis
# REMOVED: CO2 molecule creation (handled by create_hap_slabs.py)
# Including: adsorption mode determination, OH-CO2 interactions, and thermodynamic analysis

units metal
boundary p p s
atom_style atomic

atom_modify map yes

# Read HAP structure data file (with CO2 already placed by create_hap_slabs.py)
read_data hap_hkl.data

# ==========================================
# COMPLETE SIMULATION TRAJECTORY - START BEFORE ALL STAGES
# ==========================================
print "Starting complete simulation trajectory - recording from initial structure..."
dump xyz_complete_simulation all xyz 50 trajectory_complete_simulation.xyz
dump_modify xyz_complete_simulation element Ca P O H C sort id

# Publication-ready trajectory (true triclinic cell)
dump pub_complete all custom 50 trajectory_complete_simulation.lammpstrj id type x y z
# dump_modify pub_complete triclinic/general yes element Ca P O H C sort id first yes
dump_modify pub_complete element Ca P O H C sort id

run 0 post no

print "Complete simulation trajectory activated - initial frame recorded"
print "Will continue recording through all simulation stages..."

print "================================================"
print "ENHANCED CO2-HAP Adsorption Analysis (700 C HIGH-TEMPERATURE)"
print "1. CO2 molecule pre-placed by create_hap_slabs.py"
print "2. Adsorption Mode Determination"
print "3. OH-CO2 Hydrogen Bonding & Polarization"
print "4. Thermodynamic Analysis (Free Energy, Entropy, Enthalpy)"
print "5. HIGH-TEMPERATURE CHEMICAL REACTIONS (700 C)"
print "6. SURFACE-SPECIFIC ANALYSIS AND ADAPTATION"
print "================================================"

# Define atom groups for comprehensive analysis
group Ca type 1
group P type 2
group O type 3
group H type 4

# Check if CO2 atoms exist (type 5 = Carbon)
# group C type 5
# variable has_co2 equal "count(C) > 0"
variable isC atom "type==5"
group C variable isC
variable has_co2 equal "count(C) > 0"
if "${has_co2} > 0.5" then "print 'CO2 atoms found: $(count(C))'" else "print 'WARNING: No CO2 atoms found in system'"

# FIXED: Create HAP_surface excluding CO2 O atoms
# First create HAP_surface with all O atoms
group HAP_surface union Ca P O H    # All HAP atoms for thermodynamics

# If CO2 exists, exclude CO2 O atoms from HAP_surface
if "${has_co2} > 0.5" then "group CO2_mol type 5"
if "${has_co2} > 0.5" then "group CO2_oxygen type 3"
if "${has_co2} > 0.5" then "group CO2_mol_complete union C CO2_oxygen"
if "${has_co2} > 0.5" then "group HAP_surface_clean subtract HAP_surface CO2_mol_complete"
if "${has_co2} > 0.5" then "group HAP_surface delete"
if "${has_co2} > 0.5" then "group HAP_surface union HAP_surface_clean"
if "${has_co2} > 0.5" then "group CO2_mol_complete delete"
if "${has_co2} > 0.5" then "group CO2_oxygen delete"
if "${has_co2} > 0.5" then "group HAP_surface_clean delete"

print "Initial system composition:"
print "  Ca atoms: $(count(Ca))"
print "  P atoms: $(count(P))"
print "  O atoms: $(count(O))"
print "  H atoms: $(count(H))"
if "${has_co2} > 0.5" then "print '  C atoms (CO2): $(count(C))'"
print "  Total atoms: $(count(all))"
print "================================================"

# Use DeepMD potential with explicit PyTorch backend
pair_style deepmd model/hap_model.pth
if "${has_co2} > 0.5" then "pair_coeff * * Ca P O H C" &
else "pair_coeff * * Ca P O H"

# Define atomic masses
mass 1 40.078  # Ca
mass 2 30.974  # P
mass 3 15.999  # O
mass 4 1.008   # H
mass 5 12.011  # C

# CRITICAL FIX: Ultra-conservative timestep for extreme numerical stability
timestep 0.0001    # unit: ps, 0.1 fs (EVEN SMALLER for stability)

# ENHANCED: Use NSQ neighbor style for small systems with conservative parameters
neighbor 1.0 nsq    # Conservative skin distance for stability
neigh_modify every 1 delay 0 check yes

# ENHANCED: Conservative communication cutoff with additional stability measures
comm_modify cutoff 8.0  # Conservative communication cutoff for stability
comm_style brick       # Use brick communication style for better stability
comm_modify mode single # Single communication mode for enhanced stability

# ------------------------------------
#  System Preparation and Constraints - MODIFIED FOR SURFACE MODELS
# ------------------------------------
# ENHANCED: Surface-adaptive constraints for different surface models
variable zlo equal bound(all,zmin)
variable zhi equal bound(all,zmax)

# Surface self-adaptive constraints according to the slab model
variable surface_type string "auto_detect"
variable total_thickness equal ${zhi}-${zlo}

# FIXED: Add missing zfix variable definition
# Adjust the fixing layer height according to slab layer height
if "${total_thickness} < 20.0" then "variable zfix equal ${zlo}+1.0"
if "${total_thickness} >= 20.0 && ${total_thickness} < 40.0" then "variable zfix equal ${zlo}+2.0"
if "${total_thickness} >= 40.0" then "variable zfix equal ${zlo}+3.0"

print "Surface adaptive constraints:"
print "  Total slab thickness: ${total_thickness} Angstrom"
print "  Fixed layer thickness: ${zfix}-${zlo} Angstrom"

region bottom_layer block INF INF INF INF INF ${zfix}
group bottom_atoms region bottom_layer
group mobile_atoms subtract all bottom_atoms

# -----------------------------------------------------------------
# *** Z-ONLY MOTION CONSTRAINTS ***
#   1) zero lateral velocities
velocity mobile_atoms set 0.0 0.0 NULL units box
#   2) kill lateral forces each step
fix freeze_xy mobile_atoms setforce 0.0 0.0 NULL
#   3) temp compute that uses ONLY vz
compute temp_z mobile_atoms temp/partial 0 0 1

print "HIGH-TEMPERATURE CONSTRAINT SETUP (700 C Operation):"
print "  Fixed atoms in bottom layer: $(count(bottom_atoms))"
print "  Mobile atoms: $(count(mobile_atoms))"
print "  Mobile fraction: $(count(mobile_atoms)/count(all)*100)%"
print "  Target reaction temperature: 973 K (700 C)"

# Verify CO2 molecule position if present
if "${has_co2} > 0.5" then "compute co2_com C com"
if "${has_co2} > 0.5" then "run 0 post no"
if "${has_co2} > 0.5" then "variable co2_x_initial equal c_co2_com[1]"
if "${has_co2} > 0.5" then "variable co2_y_initial equal c_co2_com[2]"
if "${has_co2} > 0.5" then "variable co2_z_initial equal c_co2_com[3]"
if "${has_co2} > 0.5" then "print 'Initial CO2 position: (${co2_x_initial}, ${co2_y_initial}, ${co2_z_initial})'"

# ==========================================
# Enhanced bottom fixing mechanism - prevent divergence
# ==========================================

# Apply multiple constraints to bottom atoms
fix freeze_bottom bottom_atoms setforce 0.0 0.0 0.0
fix nve_limit_bottom bottom_atoms nve/limit 0.001  # Limit max displacement to 0.001Å

# Keep bottom atoms fixed during production (remove or comment out unfix freeze_bottom)
# unfix freeze_bottom

# Enhanced wall constraints
variable safe_wall_z equal bound(all,zmax)+20.0  # Place top wall 20Å above highest atom
fix wall_top all wall/lj93 zhi ${safe_wall_z} 2.0 1.0 4.0  # Stronger top wall
variable bottom_wall_z equal ${zlo}-2.0  # Calculate bottom wall position, adding bottom wall 2Å below lowest atom
fix wall_bottom all wall/lj93 zlo ${bottom_wall_z} 2.0 1.0 4.0

# ------------------------------------
#  CONSERVATIVE Overlap Removal and Energy Minimization
# ------------------------------------
print "Conservative overlap removal and energy minimization..."

# Check for overlaps and remove if necessary
print "Checking for atomic overlaps..."
# delete_atoms overlap 0.8 all all
if "${has_co2} > 0.5" then "print 'Skip delete_atoms overlap when CO2 present'" &
else "delete_atoms overlap 0.8 all all"
print "After overlap removal: $(count(all)) atoms remaining"

# Rebuild groups after potential atom deletion
group Ca type 1
group P type 2
group O type 3
group H type 4

# FIXED: Rebuild HAP_surface excluding CO2 O atoms
group HAP_surface union Ca P O H

# If CO2 exists, exclude CO2 O atoms from HAP_surface
if "${has_co2} > 0.5" then "group C type 5"
if "${has_co2} > 0.5" then "group CO2_oxygen type 3"
if "${has_co2} > 0.5" then "group CO2_mol_complete union C CO2_oxygen"
if "${has_co2} > 0.5" then "group HAP_surface_clean subtract HAP_surface CO2_mol_complete"
if "${has_co2} > 0.5" then "group HAP_surface delete"
if "${has_co2} > 0.5" then "group HAP_surface union HAP_surface_clean"
if "${has_co2} > 0.5" then "group CO2_mol_complete delete"
if "${has_co2} > 0.5" then "group CO2_oxygen delete"
if "${has_co2} > 0.5" then "group HAP_surface_clean delete"
if "${has_co2} > 0.5" then "group CO2_mol type 5"

group mobile_atoms subtract all bottom_atoms

# Conservative energy minimization
print "Conservative energy minimization..."
min_style cg

dump xyz_Initminimization all xyz 10 trajectory_Initminimization.xyz
dump_modify xyz_Initminimization element Ca P O H C sort id

# Publication-ready: minimization stage with true triclinic cell
dump pub_Initminimization all custom 10 trajectory_Initminimization.lammpstrj id type x y z
# dump_modify pub_Initminimization triclinic/general yes element Ca P O H C sort id
dump_modify pub_Initminimization element Ca P O H C sort id

# Freeze whole CO2 during minimization to avoid advancing breakdown
if "${has_co2} > 0.5" then "compute co2_com_pre C com"
if "${has_co2} > 0.5" then "run 0 post no"
if "${has_co2} > 0.5" then "variable C_x_pre equal c_co2_com_pre[1]"
if "${has_co2} > 0.5" then "variable C_y_pre equal c_co2_com_pre[2]"
if "${has_co2} > 0.5" then "variable C_z_pre equal c_co2_com_pre[3]"
if "${has_co2} > 0.5" then "variable dist_to_C_pre atom 'sqrt((x-v_C_x_pre)^2+(y-v_C_y_pre)^2+(z-v_C_z_pre)^2)'"
if "${has_co2} > 0.5" then "variable is_CO2_O_pre atom '(type==3) && (v_dist_to_C_pre < 2.0)'"
if "${has_co2} > 0.5" then "group CO2_O_pre variable is_CO2_O_pre"
if "${has_co2} > 0.5" then "group CO2_molecule_pre union C CO2_O_pre"
if "${has_co2} > 0.5" then "fix freeze_co2 CO2_molecule_pre setforce 0.0 0.0 0.0"

minimize 1.0e-8 1.0e-8 1000 10000

# Unfreeze and clean up
if "${has_co2} > 0.5" then "unfix freeze_co2"
if "${has_co2} > 0.5" then "group CO2_O_pre delete"
if "${has_co2} > 0.5" then "group CO2_molecule_pre delete"
if "${has_co2} > 0.5" then "uncompute co2_com_pre"

undump xyz_Initminimization
undump pub_Initminimization

# Check final forces
variable max_force atom sqrt(fx*fx+fy*fy+fz*fz)
compute max_force_check all reduce max v_max_force
run 0 post no

print "Maximum force after minimization: $(c_max_force_check) eV/Angstrom"

# ENHANCED: Force validation with additional checks
if "$(c_max_force_check) > 0.5" then "print 'WARNING: Forces > 0.5 eV/A detected'"
if "$(c_max_force_check) > 5.0" then "print 'ERROR: Large forces > 5.0 eV/A!'"
if "$(c_max_force_check) > 50.0" then "print 'CRITICAL ERROR: Very large forces > 50.0 eV/A!'"
if "$(c_max_force_check) > 50.0" then "quit"

# ENHANCED: Additional stability checks
variable pe_check equal pe
if "$(v_pe_check) != $(v_pe_check)" then "print 'ERROR: NaN detected in potential energy!'"
if "$(v_pe_check) != $(v_pe_check)" then "quit"

# FIXED: Check for atomic overlaps after minimization - CORRECT SYNTAX
compute overlap_x all reduce min x
compute overlap_y all reduce min y  
compute overlap_z all reduce min z
run 0 post no
if "$(c_overlap_x) < -1000 || $(c_overlap_y) < -1000 || $(c_overlap_z) < -1000" then "print 'WARNING: Possible atomic overlaps detected!'"

# Store reference energy for thermodynamic analysis
variable E_ref_total equal pe
variable E_ref_per_atom equal pe/atoms
print "Reference state energy: ${E_ref_total} eV"
print "Reference energy per atom: ${E_ref_per_atom} eV/atom"

# Verify CO2 molecule position after minimization
if "${has_co2} > 0.5" then "run 0 post no"
if "${has_co2} > 0.5" then "variable co2_x_final equal c_co2_com[1]"
if "${has_co2} > 0.5" then "variable co2_y_final equal c_co2_com[2]"
if "${has_co2} > 0.5" then "variable co2_z_final equal c_co2_com[3]"
if "${has_co2} > 0.5" then "variable hap_zmax equal bound(HAP_surface,zmax)"
if "${has_co2} > 0.5" then "variable final_distance equal ${co2_z_final}-${hap_zmax}"
if "${has_co2} > 0.5" then "print 'Final CO2 position: (${co2_x_final}, ${co2_y_final}, ${co2_z_final})'"
if "${has_co2} > 0.5" then "print 'Distance from HAP surface: ${final_distance} Angstrom'"

# ------------------------------------
#  ULTRA-CONSERVATIVE HIGH-TEMPERATURE Equilibration Protocol (700 C Target)
# ------------------------------------
print "ULTRA-CONSERVATIVE HIGH-TEMPERATURE EQUILIBRATION PROTOCOL FOR CHEMICAL REACTIONS"
print "==================================================================================="

# ==========================================
# STAGE 1-2: INITIAL EQUILIBRATION TRAJECTORY
# ==========================================
print "Stage 1-2: Starting initial equilibration trajectory..."
dump xyz_Initequilibration all xyz 20 trajectory_InitEquilibration.xyz
dump_modify xyz_Initequilibration element Ca P O H C sort id

# Publication-ready: initial equilibration with true triclinic cell
dump pub_InitEquilibration all custom 20 trajectory_InitEquilibration.lammpstrj id type x y z
# dump_modify pub_InitEquilibration triclinic/general yes element Ca P O H C sort id
dump_modify pub_InitEquilibration element Ca P O H C sort id

# STAGE 1: Initialize velocities for mobile atoms - START EXTREMELY LOW
print "Stage 1: Ultra-conservative velocity initialization..."

# Initialize velocities for all atoms (LAMMPS 'all' is a predefined group)
velocity all create 0.1 12345 mom no rot no dist gaussian  # START AT 0.1K

# FIXED: Verify velocities are finite with CORRECT SYNTAX
compute vel_x all reduce max vx
compute vel_y all reduce max vy
compute vel_z all reduce max vz
run 0 post no
print "Max velocity components: $(c_vel_x) $(c_vel_y) $(c_vel_z)"

# ENHANCED: Check for NaN values in potential energy and velocities
run 0 post no
variable pe_check equal pe
if "$(v_pe_check) != $(v_pe_check)" then "print 'ERROR: NaN detected in potential energy!'"
if "$(v_pe_check) != $(v_pe_check)" then "quit"

# FIXED: Check for NaN in velocity components - CORRECTED REFERENCES
if "$(c_vel_x) != $(c_vel_x)" then "print 'ERROR: NaN detected in velocity X component!'"
if "$(c_vel_y) != $(c_vel_y)" then "print 'ERROR: NaN detected in velocity Y component!'"
if "$(c_vel_z) != $(c_vel_z)" then "print 'ERROR: NaN detected in velocity Z component!'"
if "$(c_vel_x) != $(c_vel_x) || $(c_vel_y) != $(c_vel_y) || $(c_vel_z) != $(c_vel_z)" then "quit"

# Verify initial velocities
compute temp_mobile mobile_atoms temp
run 0 post no
print "Initial mobile atom temperature: $(c_temp_mobile) K"

# Fix bottom atoms during equilibration
fix freeze_bottom bottom_atoms setforce 0.0 0.0 0.0

# STAGE 2: Ultra-conservative initial equilibration at very low temperature
print "Stage 2: Ultra-stable initial equilibration at 0.1 K..."
fix NVT1 mobile_atoms nvt temp 0.1 0.1 5.0    # START AT 0.1K with HIGH damping
fix_modify NVT1  temp temp_z
thermo 5                                       # Very frequent monitoring
thermo_style custom step temp pe ke etotal c_temp_mobile press

# Very short test run first
run 10
print "Initial micro-test completed. Temperature: $(c_temp_mobile) K"

# Check for numerical issues
if "$(c_temp_mobile) != $(c_temp_mobile)" then "print 'ERROR: NaN temperature detected!'"
if "$(c_temp_mobile) != $(c_temp_mobile)" then "quit"

# Continue with ultra-conservative heating
run 100
print "Stage 2 completed. Final mobile temperature: $(c_temp_mobile) K"
unfix NVT1

# Stop Stage 1-2 equilibration trajectory
undump xyz_Initequilibration
undump pub_InitEquilibration
print "Stage 1-2: Initial equilibration trajectory completed"

# Gradually increase timestep as system stabilizes
timestep 0.00002    # 0.02 fs

# ==========================================
# STAGE 3-10: HEATING PHASES TRAJECTORY
# ==========================================
print "Stage 3-10: Starting heating phases trajectory..."
dump xyz_heating all xyz 50 trajectory_heating.xyz
dump_modify xyz_heating element Ca P O H C sort id

# Publication-ready: heating phases with true triclinic cell
dump pub_heating all custom 50 trajectory_heating.lammpstrj id type x y z
# dump_modify pub_heating triclinic/general yes element Ca P O H C sort id
dump_modify pub_heating element Ca P O H C sort id

# STAGE 3-10: Gradual heating phases (ultra-conservative)
print "Stage 3: Ultra-gradual heating to 1 K..."
fix HEAT1 mobile_atoms nvt temp 0.1 1.0 3.0
fix_modify HEAT1 temp temp_z
run 200
unfix HEAT1

timestep 0.00003    # 0.03 fs

print "Stage 4: Heating to 5 K..."
fix HEAT2 mobile_atoms nvt temp 1.0 5.0 2.0
fix_modify HEAT2 temp temp_z
run 500
unfix HEAT2

timestep 0.00004    # 0.04 fs

print "Stage 5: Heating to 20 K..."
fix HEAT3 mobile_atoms nvt temp 5.0 20.0 1.5
fix_modify HEAT3 temp temp_z
run 1000
unfix HEAT3

timestep 0.00005    # 0.05 fs

print "Stage 6: Heating to 100 K..."
fix HEAT4 mobile_atoms nvt temp 20.0 100.0 1.2
fix_modify HEAT4 temp temp_z
run 2000
unfix HEAT4

print "Stage 7: Heating to 300 K..."
fix HEAT5 mobile_atoms nvt temp 100.0 300.0 1.0
fix_modify HEAT5 temp temp_z
run 3000
unfix HEAT5

print "Stage 8: Heating to 500 K..."
fix HEAT6 mobile_atoms nvt temp 300.0 500.0 0.8
 fix_modify HEAT6 temp temp_z
run 4000
unfix HEAT6

print "Stage 9: Heating to 700 K..."
fix HEAT7 mobile_atoms nvt temp 500.0 700.0 0.6
fix_modify HEAT7 temp temp_z
run 5000
unfix HEAT7

print "Stage 10: Final heating to reaction temperature (973 K / 700 C)..."
fix HEAT8 mobile_atoms nvt temp 700.0 973.0 0.8
fix_modify HEAT8 temp temp_z
run 8000
unfix HEAT8

# Stop Stage 3-10 heating trajectory
undump xyz_heating
undump pub_heating
print "Stage 3-10: Heating phases trajectory completed"

# ==========================================
# STAGE 11: HIGH-TEMPERATURE EQUILIBRATION TRAJECTORY
# ==========================================
print "Stage 11: Starting high-temperature equilibration trajectory..."
dump xyz_hightemp_equil all xyz 100 trajectory_hightemp_equilibration.xyz
dump_modify xyz_hightemp_equil element Ca P O H C sort id

# Publication-ready: high-temperature equilibration with true triclinic cell
dump pub_hightemp_equil all custom 100 trajectory_hightemp_equilibration.lammpstrj id type x y z
# dump_modify pub_hightemp_equil triclinic/general yes element Ca P O H C sort id
dump_modify pub_hightemp_equil element Ca P O H C sort id

print "Stage 11: Extended equilibration at 973 K (700 C)..."
fix NVT2 mobile_atoms nvt temp 973.0 973.0 0.5 tchain 5
fix_modify NVT2 temp temp_z

# ENHANCED: Monitor temperature convergence with detailed logging
fix temp_monitor all print 100 "Mobile temp: $(c_temp_mobile) K (Target: 973K)" file temperature_evolution.log

# ENHANCED: Additional temperature stability monitoring
fix temp_stability all print 500 "Temperature stability: $(c_temp_mobile) K, Pressure: $(press) bar" file temperature_stability.log

run 20000  # Extended equilibration
print "High-temperature equilibration completed. Final mobile temperature: $(c_temp_mobile) K"

# ENHANCED: Final stability check with additional validation
if "$(c_temp_mobile) < 950.0" then "print 'WARNING: Temperature below 950K'"
if "$(c_temp_mobile) > 1000.0" then "print 'WARNING: Temperature above 1000K'"
if "$(c_temp_mobile) > 950.0 && $(c_temp_mobile) < 1000.0" then "print 'SUCCESS: Target temperature achieved!'"

# ENHANCED: Check for temperature NaN values
if "$(c_temp_mobile) != $(c_temp_mobile)" then "print 'ERROR: NaN temperature detected!'"
if "$(c_temp_mobile) != $(c_temp_mobile)" then "quit"

# ENHANCED: Check system energy stability
variable total_energy equal pe+ke
if "$(v_total_energy) != $(v_total_energy)" then "print 'ERROR: NaN detected in total energy!'"
if "$(v_total_energy) != $(v_total_energy)" then "quit"

unfix NVT2
unfix temp_monitor

# Stop Stage 11 high-temperature equilibration trajectory
undump xyz_hightemp_equil
undump pub_hightemp_equil
print "Stage 11: High-temperature equilibration trajectory completed"

# ==========================================
# STAGE 12: PRODUCTION RUN TRAJECTORY
# ==========================================
print "Stage 12: Starting production run trajectory..."
dump xyz_production all xyz 50 trajectory_production.xyz
dump_modify xyz_production element Ca P O H C sort id

# High-frequency production trajectory for detailed analysis
dump xyz_production_highfreq all xyz 20 trajectory_production_highfreq.xyz
dump_modify xyz_production_highfreq element Ca P O H C sort id

# Publication-ready: production trajectories with true triclinic cell
dump pub_production all custom 50 trajectory_production.lammpstrj id type x y z
# dump_modify pub_production triclinic/general yes element Ca P O H C sort id
dump_modify pub_production element Ca P O H C sort id

dump pub_production_highfreq all custom 20 trajectory_production_highfreq.lammpstrj id type x y z
# dump_modify pub_production_highfreq triclinic/general yes element Ca P O H C sort id
dump_modify pub_production_highfreq element Ca P O H C sort id

# ------------------------------------
#  High-Temperature Production Setup (700 C)
# ------------------------------------
print "Setting up high-temperature production run (700 C)..."

# Increase timestep for production
timestep 0.0001     # 0.1 fs for production

# Use optimized thermostat for production
fix PROD mobile_atoms nvt temp 973.0 973.0 0.3 tchain 3
fix_modify PROD  temp temp_z

# ENHANCED: Enhanced temperature monitoring with stability checks
compute temp_mobile_prod mobile_atoms temp
compute temp_system_prod all temp
fix temp_prod_monitor all print 500 "Production temp: $(c_temp_mobile_prod) K" file production_temperature.log

# ENHANCED: Production run stability monitoring
fix prod_stability all print 1000 "Production stability: Temp=$(c_temp_mobile_prod) K, PE=$(pe) eV, KE=$(ke) eV" file production_stability.log

# ==========================================
# PART 1: ADSORPTION MODE DETERMINATION (CO2-conditional)
# ==========================================
print "Setting up adsorption mode analysis..."

# Multi-scale coordination analysis for CO2 polarization/ionization (only if CO2 exists)
if "${has_co2} > 0.5" then "compute coord_CO_short C coord/atom cutoff 1.4 3"    # Strong C=O double bonds
if "${has_co2} > 0.5" then "compute coord_CO_medium C coord/atom cutoff 1.8 3"   # Polarized/single C-O bonds
if "${has_co2} > 0.5" then "compute coord_CO_long C coord/atom cutoff 2.2 3"     # Carbonate C-O bonds
if "${has_co2} > 0.5" then "compute coord_CO_extended C coord/atom cutoff 3.0 3" # Extended coordination

# CO2 chemical transformation detection
if "${has_co2} > 0.5" then "compute coord_C_OH C coord/atom cutoff 2.0 4"        # C-H interactions
if "${has_co2} > 0.5" then "compute coord_C_H_close C coord/atom cutoff 1.5 4"   # Close C-H bonds

# Statistical analysis for CO2 chemical state (conditional)
if "${has_co2} > 0.5" then "compute coord_avg_short C reduce ave c_coord_CO_short"
if "${has_co2} > 0.5" then "compute coord_avg_medium C reduce ave c_coord_CO_medium"
if "${has_co2} > 0.5" then "compute coord_avg_long C reduce ave c_coord_CO_long"
if "${has_co2} > 0.5" then "compute coord_avg_extended C reduce ave c_coord_CO_extended"
if "${has_co2} > 0.5" then "compute coord_avg_CH C reduce ave c_coord_C_OH"
if "${has_co2} > 0.5" then "compute coord_avg_CH_close C reduce ave c_coord_C_H_close"

# Identify HAP surface atoms involved in adsorption
compute coord_O_neigh O coord/atom cutoff 3.0 5
compute coord_Ca_neigh Ca coord/atom cutoff 3.5 5
compute coord_P_neigh P coord/atom cutoff 3.5 5

# Add Ca and P average coordination computes
compute coord_Ca_avg Ca reduce ave c_coord_Ca_neigh
compute coord_P_avg P reduce ave c_coord_P_neigh

# Surface analysis
compute surface_z_coords HAP_surface property/atom z
compute surface_height_hap HAP_surface reduce max c_surface_z_coords

# CO2 position analysis (conditional)
if "${has_co2} > 0.5" then "compute co2_z_coords C property/atom z"
if "${has_co2} > 0.5" then "compute co2_height_calc C reduce ave c_co2_z_coords"

# Initialize the computes
run 0 post no

# Distance calculation (conditional)
if "${has_co2} > 0.5" then "variable surf_z equal c_surface_height_hap"
if "${has_co2} > 0.5" then "variable co2_z equal c_co2_height_calc"
if "${has_co2} > 0.5" then "variable co2_surf_distance equal v_co2_z-v_surf_z"

# Chemical species identification (conditional)
if "${has_co2} > 0.5" then "variable is_molecular atom 'c_coord_CO_short >= 1.8'"
if "${has_co2} > 0.5" then "variable is_polarized atom 'c_coord_CO_medium > c_coord_CO_short'"
if "${has_co2} > 0.5" then "variable is_carbonate atom 'c_coord_CO_long >= 2.5'"
if "${has_co2} > 0.5" then "variable is_bicarbonate atom 'c_coord_C_OH > 0.5'"

if "${has_co2} > 0.5" then "compute count_molecular all reduce sum v_is_molecular"
if "${has_co2} > 0.5" then "compute count_polarized all reduce sum v_is_polarized"
if "${has_co2} > 0.5" then "compute count_carbonate all reduce sum v_is_carbonate"
if "${has_co2} > 0.5" then "compute count_bicarbonate all reduce sum v_is_bicarbonate"

# ==========================================
# PART 2: OH-CO2 HYDROGEN BONDING ANALYSIS
# ==========================================
print "Setting up OH-CO2 hydrogen bonding analysis..."

# Identify OH groups
compute coord_O_H O coord/atom cutoff 1.2 4
variable is_OH_oxygen atom "c_coord_O_H>0.5"
compute count_OH_groups all reduce sum v_is_OH_oxygen

# Proton transfer analysis
compute coord_H_CO2_strong H coord/atom cutoff 1.2 3
compute coord_H_mobile H coord/atom cutoff 2.0 3
compute coord_O_H_water O coord/atom cutoff 1.0 4

# Water formation and carbonate analysis
variable H_in_water atom "c_coord_O_H_water > 1.5"
variable O_in_carbonate atom "c_coord_O_neigh > 0.5"

compute count_H_water all reduce sum v_H_in_water
compute count_O_carbonate all reduce sum v_O_in_carbonate

# OH-CO2 interaction distances (conditional)
if "${has_co2} > 0.5" then "compute coord_C_OH_close C coord/atom cutoff 2.5 4"
if "${has_co2} > 0.5" then "compute coord_C_OH_medium C coord/atom cutoff 3.5 4"
if "${has_co2} > 0.5" then "compute coord_C_OH_long C coord/atom cutoff 5.0 4"

# Interaction statistics
compute avg_H_strong H reduce ave c_coord_H_CO2_strong
compute avg_H_mobile H reduce ave c_coord_H_mobile

if "${has_co2} > 0.5" then "compute avg_C_OH_close C reduce ave c_coord_C_OH_close"
if "${has_co2} > 0.5" then "compute avg_C_OH_medium C reduce ave c_coord_C_OH_medium"
if "${has_co2} > 0.5" then "compute avg_C_OH_long C reduce ave c_coord_C_OH_long"

# Hydrogen bonding count
variable H_bonded atom "c_coord_H_CO2_strong>0"
compute count_H_bonded all reduce sum v_H_bonded

# ==========================================
# PART 3: THERMODYNAMIC ANALYSIS
# ==========================================
print "Setting up thermodynamic analysis..."

# Energy decomposition
compute pe_total all pe
compute ke_total all ke
compute pe_atom all pe/atom
compute ke_atom all ke/atom

# Group-specific energies
variable is_HAP atom "type<=4"
variable is_CO2_atom atom "type==5"

# CO2 molecule identification (including oxygen atoms near carbon) - conditional
if "${has_co2} > 0.5" then "compute com_C C com"
if "${has_co2} > 0.5" then "variable C_x equal c_com_C[1]"
if "${has_co2} > 0.5" then "variable C_y equal c_com_C[2]"
if "${has_co2} > 0.5" then "variable C_z equal c_com_C[3]"

if "${has_co2} > 0.5" then "variable dist_to_C atom 'sqrt((x-v_C_x)^2+(y-v_C_y)^2+(z-v_C_z)^2)'"
if "${has_co2} > 0.5" then "variable is_CO2_O atom '(type==3) && (v_dist_to_C < 2.0)'"
if "${has_co2} > 0.5" then "variable is_CO2_all atom '(type==5) || v_is_CO2_O'"

# Energy calculations by group
variable pe_HAP_atom atom "v_is_HAP*c_pe_atom"
variable ke_HAP_atom atom "v_is_HAP*c_ke_atom"

compute pe_HAP all reduce sum v_pe_HAP_atom
compute ke_HAP all reduce sum v_ke_HAP_atom

if "${has_co2} > 0.5" then "variable pe_CO2_atom atom 'v_is_CO2_all*c_pe_atom'"
if "${has_co2} > 0.5" then "variable ke_CO2_atom atom 'v_is_CO2_all*c_ke_atom'"
if "${has_co2} > 0.5" then "compute pe_CO2 all reduce sum v_pe_CO2_atom"
if "${has_co2} > 0.5" then "compute ke_CO2 all reduce sum v_ke_CO2_atom"

# Thermodynamic properties
variable E_total equal pe+ke
variable E_HAP equal c_pe_HAP+c_ke_HAP

if "${has_co2} > 0.5" then "variable E_CO2 equal c_pe_CO2+c_ke_CO2"
if "${has_co2} > 0.5" then "variable E_interaction equal (pe+ke)-(c_pe_HAP+c_ke_HAP)-(c_pe_CO2+c_ke_CO2)"
if "${has_co2} > 0.5" then "variable E_binding equal -1*v_E_interaction"

# CO2 position analysis (conditional)
if "${has_co2} > 0.5" then "compute com_CO2 C com"
if "${has_co2} > 0.5" then "variable z_CO2 equal c_com_CO2[3]"
if "${has_co2} > 0.5" then "variable z_surf_avg equal bound(HAP_surface,zmax)"
if "${has_co2} > 0.5" then "variable CO2_height equal v_z_CO2-v_z_surf_avg"

# Unit conversions
variable eV_to_kcal equal 23.0609
variable kB_kcal equal 1.987e-3

if "${has_co2} > 0.5" then "variable E_binding_kcal equal v_E_binding*v_eV_to_kcal"
if "${has_co2} > 0.5" then "variable E_interaction_kcal equal v_E_interaction*v_eV_to_kcal"
variable E_HAP_kcal equal v_E_HAP*v_eV_to_kcal
if "${has_co2} > 0.5" then "variable E_CO2_kcal equal v_E_CO2*v_eV_to_kcal"

# System properties
variable vol_current equal vol
if "${has_co2} > 0.5" then "variable coverage equal $(count(C))/$(count(all))"
variable temp_current equal temp
variable press_current equal press

# Dynamics analysis
compute msd_HAP HAP_surface msd
if "${has_co2} > 0.5" then "compute msd_CO2 C msd"
if "${has_co2} > 0.5" then "fix msd_output all ave/time 1 10 100 c_msd_HAP c_msd_CO2 file msd_analysis.dat mode vector" &
else "fix msd_output all ave/time 1 10 100 c_msd_HAP file msd_analysis.dat mode vector"

# Heat capacity calculation