     387
 i =        1, E =     -6914.5950704018
  O         2.0038446881        2.0967145249        1.2706652434
  O         6.6063484535        0.6872095631        1.2706022500
  O         5.5258699313        5.3781136954        1.2706267780
  O         2.6998689448        6.0697770983        4.6947967220
  O        -1.8940897889        7.4644591319        4.6948035836
  O        -0.8057314200        2.7887894741        4.6947309600
  O         2.7081838690        6.0646978633        7.1851389194
  O        -1.8938177071        7.4741899062        7.1851109329
  O        -0.8142877601        2.7841339368        7.1851748979
  O         2.0134982029        2.0948016300        3.7651263792
  O         6.6031483679        0.6965222701        3.7651476724
  O         5.5193816305        5.3707060081        3.7651719200
  O         0.7837510270        3.9717372576        2.5019374259
  O         3.3411163320        3.8103434469        2.5178417582
  P         2.0519916888        2.9966982431        2.4945984388
 Ca        -2.3510102570        8.1152133669        2.5149488037
  O       -13.2553221513       31.3387148803        2.5019376640
  O         4.4538056984        0.9881328035        2.5178387323
  P         5.8029988798        0.2788145718        2.4946186715
 Ca        -1.1403872530        2.0672041275        2.5149856202
  O         7.7595355765        5.4973392899        2.5019206667
  O         6.3410947686        3.3633650167        2.5178433072
  P         6.2810528804        4.8864367375        2.4945955012
 Ca         3.4913996979        6.1404984777        2.5149528405
  O         3.9275290306        4.1899829608        5.9592573994
  O         1.3701448194        4.3508022311        5.9430592615
  P         2.6608191057        5.1627441326        5.9733196849
 Ca         7.0531815274        0.0462984102        5.9498756999
  O        -0.8809083817        9.4681789087        5.9592376213
  O         0.2591927714        7.1728037943        5.9430545735
  P        -1.0892788825        7.8846273531        5.9733377445
 Ca         5.8569769494        6.0848594290        5.9498155643
  O        15.8011787421        2.6648907153        5.9592454584
  O        -1.6294498524        4.7997440132        5.9430688018
  P        -1.5714575898        3.2761166120        5.9733466817
 Ca         1.2260326493        2.0298358971        5.9498493601
 Ca        -0.0000027081        5.4410018012        0.8221251894
 Ca         4.7119936515        2.7200213055        4.2217608375
 Ca         4.7120040053        2.7199868419        7.6435553925
 Ca        -0.0000061976        5.4409858119        4.2427974835
  O        -0.0000054313        0.0000340465        9.0468490805
  H        -0.0000047535       -0.0000025603        8.1110291370
  O        -0.0000547830       -0.0002377525        5.3410000000
  H        -0.0000332242        0.0000932024        4.6527580989
  O        -0.0001085901        0.0001699852        6.5590000000
  H        -0.0000192515        0.0000059059        7.2902022997
  O         0.0000079579       -0.0000267200        2.8512237020
  H        -0.0000027496        0.0000331706        3.7784174665
  O        11.4278387202        2.0967201602        1.2706576616
  O        16.0303411894        0.6872042901        1.2706001226
  O        14.9498517463        5.3781153304        1.2706290739
  O        12.1238609934        6.0697865951        4.6947953307
  O         7.5299325846        7.4644567449        4.6948096909
  O         8.6182689935        2.7887971875        4.6947239141
  O        12.1321791278        6.0647109322        7.1851435380
  O         7.5302000647        7.4741902735        7.1851116617
  O         8.6097089126        2.7841485596        7.1851718907
  O        11.4374959472        2.0948024434        3.7651230636
  O        16.0271424018        0.6965197498        3.7651486250
  O        14.9433701697        5.3707037919        3.7651737891
  O        10.2077426575        3.9717491190        2.5019212869
  O        12.7651041177        3.8103420852        2.5178422108
  P        11.4760079429        2.9966895158        2.4946049611
 Ca         7.0729636078        8.1152227928        2.5149583450
  O        -3.8313252644       31.3387135687        2.5019325281
  O        13.8777971493        0.9881348558        2.5178386979
  P        15.2270084809        0.2788177050        2.4946186110
 Ca         8.2836000798        2.0671934773        2.5149925571
  O        -1.6644893513        5.4973334840        2.5019335519
  O        15.7650849612        3.3633565596        2.5178479834
  P        15.7050842334        4.8864457805        2.4945917020
 Ca        12.9154261367        6.1404932031        2.5149622010
  O        13.3515163359        4.1899901547        5.9592585309
  O        10.7941469044        4.3508086312        5.9430633168
  P        12.0848254436        5.1627258029        5.9733157253
 Ca        16.4771911574        0.0462903471        5.9498743822
  O         8.5431056924        9.4681922274        5.9592445172
  O         9.6832094907        7.1728070583        5.9430567252
  P         8.3346951102        7.8846128270        5.9733310273
 Ca        15.2809722146        6.0848669355        5.9498166974
  O         6.3771864452        2.6648949238        5.9592420176
  O         7.7945541968        4.7997544736        5.9430612554
  P         7.8525444066        3.2760938910        5.9733545272
 Ca        10.6500153701        2.0298379306        5.9498419000
 Ca         9.4239893696        5.4409939908        0.8221639113
 Ca        14.1360063583        2.7200221833        4.2217604534
 Ca        14.1360165008        2.7199873927        7.6435533160
 Ca         9.4239883803        5.4409791422        4.2428094053
  O         9.4239906589        0.0000108249        9.0468487055
  H         9.4239962863        0.0000048606        8.1110322719
  O         9.4240115724        0.0000531588        5.3410000000
  H         9.4239523054       -0.0000170989        4.6527791793
  O         9.4238747216       -0.0000551003        6.5590000000
  H         9.4239842183        0.0000068635        7.2901959911
  O         9.4240141000        0.0000037142        2.8512179563
  H         9.4239910496       -0.0000096294        3.7784146680
  O        -2.7081745639       10.2577869141        1.2706658862
  O         1.8943518061        8.8482242517        1.2706160013
  O         0.8138600866       13.5391167646        1.2706440229
  O        -2.0121505979       14.2308572633        4.6947268830
  O        -6.6061275875       15.6263151482        4.6946675023
  O        -5.5177394031       10.9498102658        4.6946974289
  O        -2.0038401592       14.2257446672        7.1850960775
  O        -6.6058895624       15.6360715879        7.1851751120
  O        -5.5263136233       10.9451314223        7.1851522227
  O        -2.6984984350       10.2558682090        3.7650897231
  O         1.8911622699        8.8575463366        3.7651618507
  O         0.8073756300       13.5317106147        3.7651457252
  O        -3.9283209639       12.1328084467        2.5018761223
  O        -1.3709240659       11.9713600775        2.5178368943
  P        -2.6599318213       11.1576249968        2.4946196625
 Ca        -7.0630500056       16.2772492261        2.5150195311
  O         0.8807023178        6.8540742674        2.5019351853
  O        -0.2581973988        9.1491524748        2.5178518415
  P         1.0910231271        8.4398027731        2.4946061454
 Ca        -5.8523807709       10.2290871421        2.5150197616
  O         3.0475744463       13.6583185590        2.5018861226
  O         1.6290850867       11.5243493563        2.5178334392
  P         1.5690079729       13.0474700143        2.4945979426
 Ca        -1.2205400464       14.3015239710        2.5149923604
  O        -0.7842792511       12.3517687231        5.9592153230
  O        -3.3418683324       12.5118025210        5.9430252797
  P        -2.0512990581       13.3239359874        5.9734110199
 Ca         2.3410954659        8.2082273831        5.9498679358
  O        -5.5928814722       17.6292668718        5.9592276290
  O        -4.4526926979       15.3346400519        5.9430398642
  P        -5.8012842096       16.0459077983        5.9733797385
 Ca         1.1449629974       14.2468847205        5.9498839840
  O        11.0891628716       10.8258672610        5.9592315257
  O        -6.3414562027       12.9607329843        5.9430420198
  P        -6.2834499461       11.4371674262        5.9733886266
 Ca        -3.4860110764       10.1908255372        5.9498638431
 Ca        -4.7119846099       13.6020102944        0.8222541275
 Ca         0.0000181371       10.8819845124        4.2217717386
 Ca         0.0000286498       10.8820279029        7.6436950056
 Ca        -4.7119934830       13.6020180434        4.2428651279
  O        14.1359811912        8.1610765170        9.0468524819
  H        14.1360111473        8.1609972936        8.1110070724
  O        14.1363884580        8.1609848022        5.3410000000
  H        14.1358659996        8.1610469075        4.6526951509
  O        14.1357636847        8.1611992247        6.5590000000
  H        14.1360017428        8.1609999063        7.2902011459
  O        14.1360314377        8.1611305476        2.8512269575
  H        14.1359501705        8.1610176769        3.7784247980
  O         6.7158443107       10.2577792878        1.2706677660
  O        11.3183527598        8.8482254496        1.2706022515
  O        10.2378684303       13.5391244898        1.2706192143
  O         7.4118857306       14.2308594425        4.6947418130
  O         2.8178644901       15.6263167010        4.6946740674
  O         3.9062751276       10.9498022825        4.6946942413
  O         7.4201777106       14.2257405630        7.1851133638
  O         2.8181052018       15.6360715644        7.1851616155
  O         3.8977040972       10.9451277105        7.1851429706
  O         6.7255149190       10.2558647950        3.7650932286
  O        11.3151587059        8.8575441230        3.7651531670
  O        10.2313766346       13.5317028656        3.7651291021
  O         5.4957178967       12.1327847160        2.5018963643
  O         8.0531024860       11.9713679575        2.5178375306
  P         6.7640136946       11.1576390505        2.4946143803
 Ca         2.3609391241       16.2772472113        2.5149882431
  O        10.3047042579        6.8540685615        2.5019175915
  O         9.1658168959        9.1491490875        2.5178453660
  P        10.5150103705        8.4398123566        2.4946257178
 Ca         3.5715997957       10.2290983229        2.5150014476
  O        -6.3764264460       13.6583236222        2.5018620893
  O        11.0530840445       11.5243591595        2.5178330665
  P        10.9930035007       13.0474645731        2.4946265405
 Ca         8.2034193155       14.3015151641        2.5149811386
  O         8.6397360268       12.3517667398        5.9592251618
  O         6.0821608402       12.5118193071        5.9430298209
  P         7.3726700991       13.3239216515        5.9733964057
 Ca        11.7650693839        8.2082215252        5.9498614170
  O         3.8311344958       17.6292688456        5.9592283938
  O         4.9713201224       15.3346344038        5.9430380880
  P         3.6227031426       16.0459123239        5.9733915042
 Ca        10.5689765163       14.2469382698        5.9498627149
  O         1.6651760767       10.8258702859        5.9592244816
  O         3.0825512641       12.9607385190        5.9430308527
  P         3.1405267488       11.4371587364        5.9733985644
 Ca         5.9379760277       10.1908115519        5.9498666111
 Ca         4.7119764076       13.6020089915        0.8222088087
 Ca         9.4240023123       10.8819793361        4.2217700865
 Ca         9.4240125219       10.8820061877        7.6436224168
 Ca         4.7119805866       13.6020174675        4.2428483716
  O         4.7120006899        8.1610843660        9.0468517641
  H         4.7120071107        8.1609977860        8.1110002612
  O         4.7122973863        8.1609856822        5.3410000000
  H         4.7118786934        8.1610572026        4.6526976430
  O         4.7117790554        8.1612163481        6.5590000000
  H         4.7119930497        8.1610042554        7.2902167193
  O         4.7120379907        8.1611237513        2.8512293593
  H         4.7119563136        8.1610221038        3.7784252193
  O        -7.4201673692       18.4197179318        1.2706618678
  O        -2.8177050970       17.0101433824        1.2706269365
  O        -3.8982208469       21.7002272287        1.2705356039
  O        -6.7241324670       22.3918930443        4.6947259791
  O       -11.3180812209       23.7873390616        4.6947039247
  O       -10.2296903895       19.1117579680        4.6946616665
  O        -6.7158134052       22.3867825868        7.1851329884
  O       -11.3178399043       23.7970931931        7.1851730685
  O       -10.2382533490       19.1070968682        7.1851639652
  O        -7.4105150418       18.4178000994        3.7651006986
  O        -2.8208960750       17.0194746977        3.7651132868
  O        -3.9046972140       21.6928142268        3.7652416142
  O        -8.6402657854       20.2947619269        2.5018727043
  O        -6.0829280285       20.1333015889        2.5178150693
  P        -7.3719605473       19.3196899693        2.4946278373
 Ca       -11.7750597883       24.4383071151        2.5150046890
  O        -3.8312517519       15.0154116170        2.5018479159
  O        -4.9701978697       17.3110948347        2.5178399759
  P        -3.6209822369       16.6015344417        2.4946186526
 Ca       -10.5644159636       18.3902096538        2.5150169241
  O        -1.6644614365       21.8203606687        2.5018958357
  O        -3.0828594449       19.6862827136        2.5178367875
  P        -3.1428570600       21.2092897139        2.4946109146
 Ca        -5.9325441491       22.4625760167        2.5150094045
  O        -5.4963161820       20.5127672344        5.9592178801
  O        -8.0540364212       20.6736082127        5.9430331131
  P        -6.7631486259       21.4851191492        5.9733786448
 Ca        -2.3709436303       16.3692578484        5.9498735895
  O       -10.3049436487       25.7908249432        5.9592567059
  O        -9.1646739837       23.4956615691        5.9430476803
  P       -10.5132752910       24.2072898908        5.9733706185
 Ca        -3.5670720803       22.4079300681        5.9498705454
  O         6.3773042245       18.9869203983        5.9592326934
  O       -11.0535004502       21.1221044230        5.9430469925
  P       -10.9955760282       19.5987170195        5.9733939133
 Ca        -8.1979770267       18.3529127224        5.9498805126
 Ca        -9.4240109261       21.7640096975        0.8222545445
 Ca        -4.7119612447       19.0430396390        4.2218040759
 Ca        -4.7119540288       19.0429977861        7.6436752190
 Ca        -9.4240044939       21.7640016101        4.2428424538
  O        -9.4239963696       16.3230026983        9.0468486307
  H        -9.4240122987       16.3229909441        8.1109800496
  O        -9.4243379103       16.3225653939        5.3410000000
  H        -9.4239303445       16.3231127554        4.6527329632
  O        -9.4238935089       16.3231384639        6.5590000000
  H        -9.4240215421       16.3229911234        7.2902532967
  O        -9.4240154750       16.3229333097        2.8512279750
  H        -9.4239642350       16.3230431620        3.7784176450
  O         2.0038447863       18.4197201514        1.2706819724
  O         6.6063241317       17.0101604067        1.2706114131
  O         5.5258098119       21.7002293995        1.2705275761
  O         2.6998999722       22.3918894768        4.6947181103
  O        -1.8941153764       23.7873434593        4.6947044481
  O        -0.8057134878       19.1117424598        4.6946546357
  O         2.7082085556       22.3867719685        7.1851231489
  O        -1.8938781491       23.7970960798        7.1851735733
  O        -0.8142812490       19.1071002619        7.1851363981
  O         2.0135006667       18.4177974327        3.7651111388
  O         6.6031249484       17.0194776253        3.7651138226
  O         5.5193187750       21.6928100552        3.7652307664
  O         0.7837515237       20.2947495295        2.5019000704
  O         3.3411031090       20.1333113479        2.5178304700
  P         2.0519951497       19.3196830049        2.4945980096
 Ca        -2.3510353816       24.4382880300        2.5149840324
  O         5.5927697376       15.0154393461        2.5018605435
  O         4.4538253842       17.3110986362        2.5178357737
  P         5.8029703205       16.6015094758        2.4946327504
 Ca        -1.1403908528       18.3902379633        2.5149860301
  O       -11.0884175352       21.8203733392        2.5018694541
  O         6.3411585035       19.6862976111        2.5178362350
  P         6.2810893125       21.2092763106        2.4946220232
 Ca         3.4914050211       22.4625718035        2.5149883740
  O         3.9277177364       20.5127547287        5.9592172265
  O         1.3699789110       20.6736251168        5.9430264793
  P         2.6608072676       21.4851233627        5.9733999287
 Ca         7.0530918718       16.3692963150        5.9498793493
  O        -0.8809544291       25.7908307302        5.9592578591
  O         0.2592986457       23.4956637899        5.9430403133
  P        -1.0892230956       24.2072896278        5.9733707711
 Ca         5.8569342207       22.4079631401        5.9498519416
  O        -3.0467293689       18.9869091687        5.9592237587
  O        -1.6295107314       21.1221107606        5.9430285898
  P        -1.5715301845       19.5987019459        5.9734305974
 Ca         1.2259887735       18.3528639687        5.9498916357
 Ca        -0.0000081181       21.7640016372        0.8221829429
 Ca         4.7120079662       19.0430295263        4.2218017102
 Ca         4.7119887836       19.0429824044        7.6436605663
 Ca         0.0000066662       21.7639987668        4.2428279110
  O         0.0000231596       16.3229882417        9.0468438333
  H        -0.0000120511       16.3230014717        8.1109311077
  O        -0.0004162037       16.3229833733        5.3410000000
  H         0.0001256417       16.3230053877        4.6527093745
  O         0.0002430724       16.3229611593        6.5590000000
  H        -0.0000144160       16.3230070647        7.2902940032
  O        -0.0000353921       16.3229611039        2.8512294026
  H         0.0000555659       16.3229975217        3.7784236603
  O       -12.1321425261       26.5807076399        1.2706668854
  O        -7.5296688642       25.1711703350        1.2705916859
  O        -8.6101464232       29.8621053143        1.2706304865
  O       -11.4361577923       30.5537985236        4.6947806338
  O       -16.0301122224       31.9493087713        4.6947254768
  O       -14.9417275908       27.2727863472        4.6947210642
  O       -11.4278412103       30.5487096077        7.1851448624
  O       -16.0298704986       31.9590602857        7.1852099732
  O       -14.9502832242       27.2681291308        7.1851732958
  O       -12.1224990545       26.5788030850        3.7651234927
  O        -7.5328630973       25.1805064265        3.7651288199
  O        -8.6166257010       29.8546925028        3.7651543394
  O       -13.3522310176       28.4557203991        2.5019425173
  O       -10.7948984034       28.2943220887        2.5178367039
  P       -12.0840246679       27.4807577132        2.4946029604
 Ca       -16.4870369175       32.5992888102        2.5149721389
  O        -8.5433233934       23.1769710792        2.5018658197
  O        -9.6821645265       25.4721005634        2.5178406091
  P        -8.3329862769       24.7629193675        2.4946457436
 Ca       -15.2763983168       26.5512265246        2.5149855406
  O        -6.3764894171       29.9813072818        2.5019384901
  O        -7.7949121341       27.8473081531        2.5178380877
  P        -7.8549263929       29.3704991905        2.4945993709
 Ca       -10.6445785999       30.6245570373        2.5149770767
  O       -10.2082592209       28.6747453668        5.9592435822
  O       -12.7658636004       28.8347721228        5.9430601529
  P       -11.4753163003       29.6469462216        5.9733355924
 Ca        -7.0829067802       24.5312253928        5.9498507993
  O         3.8311284833        1.3065689731        5.9592563380
  O       -13.8767049637       31.6576309143        5.9430497215
  P       -15.2252995431       32.3688956957        5.9733249015
 Ca        -8.2790580810       30.5699649635        5.9498531304
  O         1.6651834505       27.1488737894        5.9592384240
  O       -15.7654509425       29.2837282566        5.9430665802
  P       -15.7074680459       27.7601755713        5.9733492529
 Ca       -12.9099553826       26.5139008862        5.9498551656
 Ca       -14.1360129537       29.9250221088        0.8221195086
 Ca        -9.4240090840       27.2050246311        4.2217792517
 Ca        -9.4240045075       27.2050076422        7.6435640396
 Ca       -14.1360056078       29.9250322367        4.2428007914
  O         4.7120004990       24.4840898997        9.0468509238
  H         4.7119915074       24.4839893653        8.1109959479
  O         4.7118993486       24.4836200363        5.3410000000
  H         4.7119761290       24.4841240769        4.6527493189
  O         4.7119146537       24.4842598604        6.5590000000
  H         4.7119771406       24.4839904429        7.2902440554
  O         4.7120124271       24.4839989961        2.8512292373
  H         4.7119993538       24.4840472945        3.7784162419
  O        -2.7081521760       26.5807186025        1.2706659158
  O         1.8943381196       25.1711859596        1.2705974232
  O         0.8138498458       29.8621105777        1.2706388611
  O        -2.0121499037       30.5537960779        4.6947803021
  O        -6.6061050855       31.9493167755        4.6947215880
  O        -5.5177514665       27.2727707581        4.6947174846
  O        -2.0038427724       30.5487033823        7.1851414994
  O        -6.6058639726       31.9590660527        7.1852089103
  O        -5.5263064523       27.2681307721        7.1851768513
  O        -2.6985060687       26.5788051995        3.7651260263
  O         1.8911475589       25.1805066632        3.7651316191
  O         0.8073645854       29.8546980971        3.7651669762
  O        -3.9282392903       28.4557273124        2.5019416869
  O        -1.3709047596       28.2943286521        2.5178384783
  P        -2.6600122636       27.4807437843        2.4945992073
 Ca        -7.0630355708       32.5992802192        2.5149749531
  O         0.8806807806       23.1769986536        2.5018855387
  O        -0.2581822479       25.4721124038        2.5178322504
  P         1.0910126912       24.7628901787        2.4946402090
 Ca        -5.8523789990       26.5512517528        2.5149722896
  O       -15.8004848247       29.9813124228        2.5019445680
  O         1.6290840384       27.8473246898        2.5178477397
  P         1.5690806893       29.3704845888        2.4945827208
 Ca        -1.2205777090       30.6245448110        2.5149636530
  O        -0.7842653491       28.6747597494        5.9592414082
  O        -3.3418679188       28.8347799312        5.9430550940
  P        -2.0513039812       29.6469483570        5.9733404220
 Ca         2.3411671573       24.5312520413        5.9498936165
  O        13.2551268802        1.3065764382        5.9592569018
  O        -4.4527042434       31.6576292077        5.9430490308
  P        -5.8013019722       32.3688881699        5.9733271049
 Ca         1.1449815120       30.5699194115        5.9498290110
  O        -7.7588236008       27.1488533779        5.9592394728
  O        -6.3414412198       29.2837137149        5.9430525165
  P        -6.2834484513       27.7601874953        5.9733528421
 Ca        -3.4859785743       26.5138604054        5.9498506129
 Ca        -4.7120041630       29.9250181942        0.8221311867
 Ca         0.0000018370       27.2050051398        4.2217767841
 Ca         0.0000105182       27.2049743090        7.6435803709
 Ca        -4.7120007042       29.9250367341        4.2428033360
  O        -4.7119864906       24.4840653945        9.0468520691
  H        -4.7120116514       24.4839998009        8.1110012340
  O        -4.7123290101       24.4840470248        5.3410000000
  H        -4.7119068534       24.4839951687        4.6527297117
  O        -4.7118271952       24.4840340785        6.5590000000
  H        -4.7120107562       24.4840012199        7.2902153710
  O        -4.7120288189       24.4840350330        2.8512301562
  H        -4.7119570158       24.4839940262        3.7784201035
  O         0.4720857225       14.9595036200       16.0647274392
  C         0.1009724924       16.3059628015       16.0778330666
  O        -0.2702652781       17.6537720452       16.0915378300
     387
 i =        2, E =     -6915.1285804205
  O         2.0037183704        2.0965339184        1.2704626491
  O         6.6065641890        0.6871892903        1.2704026856
  O         5.5257770369        5.3783117499        1.2704236101
  O         2.6998546382        6.0694751652        4.6951239736
  O        -1.8938198197        7.4645982170        4.6951308109
  O        -0.8059881185        2.7889533370        4.6950589618
  O         2.7082552420        6.0649523354        7.1854024504
  O        -1.8940745670        7.4741253762        7.1853770652
  O        -0.8141029028        2.7839438348        7.1854405561
  O         2.0135202704        2.0950668398        3.7648685469
  O         6.6029064111        0.6964081319        3.7648888040
  O         5.5196016939        5.3705512460        3.7649119735
  O         0.7842838483        3.9712366634        2.5015792095
  O         3.3413596258        3.8106438193        2.5179646058
  P         2.0509922067        2.9968153036        2.4949425975
 Ca        -2.3510969986        8.1152820519        2.5150391805
  O       -13.2551541632       31.3394175105        2.5015799406
  O         4.4534232531        0.9881929641        2.5179614799
  P         5.8034006766        0.2778989228        2.4949606364
 Ca        -1.1404054495        2.0670975231        2.5150741816
  O         7.7588404408        5.4971306432        2.5015621081
  O         6.3412334768        3.3630065539        2.5179654377
  P         6.2816492554        4.8872381671        2.4949418549
 Ca         3.4915031771        6.1405367482        2.5150424573
  O         3.9270313745        4.1904637890        5.9595928792
  O         1.3698877083        4.3504243359        5.9429315347
  P         2.6617984514        5.1627247280        5.9727557530
 Ca         7.0527390794        0.0461427091        5.9498706406
  O        -0.8810758717        9.4675052979        5.9595744599
  O         0.2596509170        7.1727695818        5.9429275744
  P        -1.0897523492        7.8854888162        5.9727707816
 Ca         5.8573306798        6.0845581702        5.9498094362
  O        15.8018447606        2.6650801200        5.9595812748
  O        -1.6296445750        4.8001486502        5.9429408135
  P        -1.5719672105        3.2752828537        5.9727802952
 Ca         1.2261155329        2.0302953156        5.9498433473
 Ca        -0.0000028209        5.4410007861        0.8228392621
 Ca         4.7119942084        2.7200228924        4.2216546624
 Ca         4.7120044229        2.7199874354        7.6430941344
 Ca        -0.0000066319        5.4409855061        4.2429330563
  O        -0.0000064135        0.0000342953        9.0473566579
  H        -0.0000048749       -0.0000016581        8.1132331855
  O        -0.0000521599       -0.0002505061        5.3574615676
  H        -0.0000315726        0.0001089559        4.6277999127
  O        -0.0001071088        0.0001742836        6.5480497924
  H        -0.0000156037       -0.0000009329        7.3077095635
  O         0.0000078817       -0.0000259595        2.8503506121
  H        -0.0000023278        0.0000319441        3.7771195604
  O        11.4277124369        2.0965396099        1.2704550921
  O        16.0305571865        0.6871842057        1.2704005665
  O        14.9497593185        5.3783132492        1.2704262779
  O        12.1238469419        6.0694842820        4.6951227782
  O         7.5302012602        7.4645957244        4.6951359578
  O         8.6180122296        2.7889610261        4.6950519869
  O        12.1322506520        6.0649647357        7.1854065926
  O         7.5299424129        7.4741253485        7.1853778805
  O         8.6098941721        2.7839578216        7.1854377179
  O        11.4375180811        2.0950679292        3.7648650638
  O        16.0269007068        0.6964057216        3.7648899510
  O        14.9435904063        5.3705491068        3.7649138335
  O        10.2082756220        3.9712483359        2.5015628355
  O        12.7653478387        3.8106427699        2.5179649170
  P        11.4750077991        2.9968064547        2.4949490822
 Ca         7.0728774138        8.1152916197        2.5150486186
  O        -3.8311572295       31.3394162451        2.5015750383
  O        13.8774151734        0.9881948910        2.5179614800
  P        15.2274094931        0.2779019449        2.4949604358
 Ca         8.2835822341        2.0670868608        2.5150814119
  O        -1.6651836342        5.4971252153        2.5015753303
  O        15.7652238105        3.3629985575        2.5179700948
  P        15.7056791425        4.8872466400        2.4949379573
 Ca        12.9155293240        6.1405315561        2.5150516403
  O        13.3510192543        4.1904706157        5.9595939424
  O        10.7938895900        4.3504304851        5.9429354425
  P        12.0858045012        5.1627078681        5.9727522573
 Ca        16.4767480439        0.0461349208        5.9498689650
  O         8.5429377301        9.4675172778        5.9595809117
  O         9.6836666157        7.1727728515        5.9429295510
  P         8.3342239456        7.8854756525        5.9727649589
 Ca        15.2813263972        6.0845652324        5.9498105355
  O         6.3778520531        2.6650840986        5.9595778859
  O         7.7943593413        4.8001581471        5.9429334974
  P         7.8520346870        3.2752619783        5.9727873812
 Ca        10.6500986054        2.0302968410        5.9498360833
 Ca         9.4239894918        5.4409932998        0.8228785204
 Ca        14.1360067459        2.7200237152        4.2216542293
 Ca        14.1360166200        2.7199879981        7.6430920142
 Ca         9.4239880584        5.4409790335        4.2429450126
  O         9.4239898098        0.0000110055        9.0473560175
  H         9.4239960610        0.0000047020        8.1132353986
  O         9.4240166857        0.0000561926        5.3574638524
  H         9.4239500290       -0.0000196019        4.6278157131
  O         9.4238746527       -0.0000565798        6.5480492156
  H         9.4239887312        0.0000101998        7.3077064728
  O         9.4240137595        0.0000030871        2.8503450731
  H         9.4239917006       -0.0000092290        3.7771170546
  O        -2.7082998718       10.2576051101        1.2704619736
  O         1.8945674390        8.8482058188        1.2704151611
  O         0.8137665423       13.5393170667        1.2704396767
  O        -2.0121652560       14.2305527628        4.6950582988
  O        -6.6058555305       15.6264549275        4.6950009798
  O        -5.5179961845       10.9499763533        4.6950286999
  O        -2.0037693203       14.2260028840        7.1853665295
  O        -6.6061433563       15.6360040528        7.1854405673
  O        -5.5261269506       10.9449435620        7.1854201085
  O        -2.6984757945       10.2561322045        3.7648346226
  O         1.8909189146        8.8574326623        3.7649016754
  O         0.8075946315       13.5315586307        3.7648886652
  O        -3.9277832411       12.1323032897        2.5015195320
  O        -1.3706783564       11.9716623685        2.5179596722
  P        -2.6609374829       11.1577477584        2.4949624389
 Ca        -7.0631351783       16.2773173232        2.5151067147
  O         0.8808691076        6.8547768235        2.5015770155
  O        -0.2585776613        9.1492114818        2.5179743765
  P         1.0914237550        8.4388893396        2.4949505034
 Ca        -5.8523987504       10.2289798905        2.5151072417
  O         3.0468771490       13.6581102680        2.5015296891
  O         1.6292213681       11.5239923408        2.5179560268
  P         1.5696100340       13.0482704392        2.4949429255
 Ca        -1.2204378831       14.3015626311        2.5150812002
  O        -0.7847837765       12.3522555091        5.9595530588
  O        -3.3421236947       12.5114265949        5.9428994069
  P        -2.0503142395       13.3239085049        5.9728364028
 Ca         2.3406551605        8.2080707501        5.9498621392
  O        -5.5930497975       17.6285945256        5.9595644717
  O        -4.4522382015       15.3346060401        5.9429128684
  P        -5.8017593625       16.0467673874        5.9728090226
 Ca         1.1453173396       14.2465814793        5.9498759703
  O        11.0898319132       10.8260591287        5.9595683884
  O        -6.3416525521       12.9611399191        5.9429150030
  P        -6.2839617106       11.4363307844        5.9728176830
 Ca        -3.4859264074       10.1912835542        5.9498565485
 Ca        -4.7119858623       13.6020095389        0.8229650349
 Ca         0.0000183251       10.8819839323        4.2216650414
 Ca         0.0000287914       10.8820258252        7.6432279987
 Ca        -4.7119943430       13.6020176246        4.2429973467
  O        14.1359818860        8.1610789425        9.0473601306
  H        14.1360097047        8.1609970927        8.1132143881
  O        14.1364075857        8.1609852378        5.3574538706
  H        14.1358415341        8.1610485792        4.6277531165
  O        14.1357562866        8.1612081778        6.5480481484
  H        14.1360122022        8.1609912386        7.3077038463
  O        14.1360300583        8.1611313058        2.8503537958
  H        14.1359521964        8.1610166768        3.7771255030
  O         6.7157182546       10.2575975894        1.2704638628
  O        11.3185679343        8.8482065669        1.2704022230
  O        10.2377752983       13.5393239973        1.2704165513
  O         7.4118693748       14.2305545456        4.6950721204
  O         2.8181364548       15.6264565397        4.6950075462
  O         3.9060174266       10.9499689737        4.6950259049
  O         7.4202479913       14.2259981699        7.1853820677
  O         2.8178507411       15.6360039548        7.1854289112
  O         3.8978897827       10.9449400959        7.1854109274
  O         6.7255370408       10.2561287655        3.7648377659
  O        11.3149156425        8.8574304093        3.7648935077
  O        10.2315956913       13.5315511156        3.7648731291
  O         5.4962531465       12.1322810543        2.5015393283
  O         8.0533460314       11.9716689198        2.5179602351
  P         6.7630127393       11.1577614226        2.4949576916
 Ca         2.3608546045       16.2773156039        2.5150765364
  O        10.3048707874        6.8547708992        2.5015593601
  O         9.1654356552        9.1492081278        2.5179679997
  P        10.5154122879        8.4388989153        2.4949684844
 Ca         3.5715824663       10.2289904701        2.5150895798
  O        -6.3771233559       13.6581151601        2.5015063145
  O        11.0532206806       11.5240010317        2.5179557132
  P        10.9936048673       13.0482661800        2.4949688761
 Ca         8.2035228579       14.3015543087        2.5150704566
  O         8.6392311008       12.3522532498        5.9595624420
  O         6.0819029925       12.5114416387        5.9429035528
  P         7.3736579604       13.3238966832        5.9728238099
 Ca        11.7646298878        8.2080650431        5.9498556008
  O         3.8309652993       17.6285964414        5.9595655189
  O         4.9717727309       15.3346010108        5.9429110833
  P         3.6222307303       16.0467712999        5.9728192223
 Ca        10.5693299873       14.2466333938        5.9498552873
  O         1.6658437250       10.8260619695        5.9595616093
  O         3.0823543830       12.9611452156        5.9429042075
  P         3.1400173011       11.4363224302        5.9728270063
 Ca         5.9380610162       10.1912701905        5.9498597865
 Ca         4.7119766666       13.6020083125        0.8229204417
 Ca         9.4240026655       10.8819793608        4.2216635580
 Ca         9.4240122985       10.8820051962        7.6431577554
 Ca         4.7119809073       13.6020170317        4.2429813827
  O         4.7120006963        8.1610869934        9.0473594030
  H         4.7120058371        8.1609978673        8.1132075564
  O         4.7123139273        8.1609851842        5.3574532696
  H         4.7118593095        8.1610591229        4.6277550268
  O         4.7117738596        8.1612246940        6.5480507839
  H         4.7120025292        8.1609950274        7.3077171483
  O         4.7120365099        8.1611247008        2.8503559608
  H         4.7119580520        8.1610209956        3.7771260183
  O        -7.4202932223       18.4195371508        1.2704591957
  O        -2.8174876093       17.0101235098        1.2704258968
  O        -3.8983108014       21.7004280296        1.2703346215
  O        -6.7241454620       22.3915899708        4.6950548318
  O       -11.3178111152       23.7874802258        4.6950359801
  O       -10.2299486805       19.1119207057        4.6949925975
  O        -6.7157414474       22.3870420705        7.1854023903
  O       -11.3180949782       23.7970291921        7.1854360440
  O       -10.2380686963       19.1069049553        7.1854325217
  O        -7.4104926916       18.4180650204        3.7648441457
  O        -2.8211368752       17.0193601821        3.7648554830
  O        -3.9044758537       21.6926632554        3.7649808598
  O        -8.6397313676       20.2942601208        2.5015153284
  O        -6.0826823354       20.1336021266        2.5179384154
  P        -7.3729650537       19.3198075427        2.4949700364
 Ca       -11.7751448617       24.4383750928        2.5150930499
  O        -3.8310863076       15.0161087287        2.5014922481
  O        -4.9705778862       17.3111539849        2.5179624432
  P        -3.6205831005       16.6006283216        2.4949614165
 Ca       -10.5644338969       18.3901021625        2.5151051726
  O        -1.6651590225       21.8201506148        2.5015387192
  O        -3.0827201093       19.6859226814        2.5179593672
  P        -3.1422621403       21.2100939335        2.4949552145
 Ca        -5.9324416161       22.4626157469        2.5150979386
  O        -5.4968185785       20.5132510450        5.9595550945
  O        -8.0542883768       20.6732341573        5.9429066511
  P        -6.7621717967       21.4850888842        5.9728074753
 Ca        -2.3713814899       16.3691025672        5.9498653520
  O       -10.3051093984       25.7901639817        5.9595921929
  O        -9.1642213981       23.4956305052        5.9429205538
  P       -10.5137490776       24.2081326476        5.9728026794
 Ca        -3.5667159026       22.4076264099        5.9498635231
  O         6.3779669727       18.9871102233        5.9595698714
  O       -11.0536981763       21.1225024695        5.9429197270
  P       -10.9960793404       19.5978946781        5.9728222126
 Ca        -8.1978946570       18.3533686121        5.9498734766
 Ca        -9.4240109214       21.7640095107        0.8229673426
 Ca        -4.7119609449       19.0430402741        4.2216961292
 Ca        -4.7119556356       19.0429993175        7.6432081057
 Ca        -9.4240050298       21.7640008612        4.2429769981
  O        -9.4239974256       16.3230022363        9.0473551366
  H        -9.4240114926       16.3229922515        8.1131897577
  O        -9.4243501304       16.3225462567        5.3574579877
  H        -9.4239110324       16.3231391133        4.6277816598
  O        -9.4238861032       16.3231444380        6.5480564285
  H        -9.4240277278       16.3229846283        7.3077479966
  O        -9.4240144104       16.3229345882        2.8503543004
  H        -9.4239654200       16.3230414833        3.7771195715
  O         2.0037184847       18.4195381686        1.2704776309
  O         6.6065394280       17.0101395421        1.2704124627
  O         5.5257189403       21.7004302753        1.2703260306
  O         2.6998854407       22.3915857209        4.6950478531
  O        -1.8938440576       23.7874846466        4.6950372371
  O        -0.8059711051       19.1119060969        4.6949865584
  O         2.7082797232       22.3870316354        7.1853937296
  O        -1.8941316064       23.7970322169        7.1854362813
  O        -0.8140943221       19.1069069622        7.1854086107
  O         2.0135224622       18.4180623087        3.7648540284
  O         6.6028830634       17.0193631359        3.7648555763
  O         5.5195398205       21.6926591307        3.7649703881
  O         0.7842853389       20.2942476407        2.5015426351
  O         3.3413466115       20.1336103460        2.5179532510
  P         2.0509939182       19.3198027230        2.4949430036
 Ca        -2.3511207016       24.4383563642        2.5150724726
  O         5.5929341333       15.0161347108        2.5015047740
  O         4.4534432379       17.3111581249        2.5179584225
  P         5.8033742743       16.6006050252        2.4949737160
 Ca        -1.1404094311       18.3901301876        2.5150753167
  O       -11.0891168413       21.8201626389        2.5015121180
  O         6.3412974499       19.6859368743        2.5179587003
  P         6.2816869228       21.2100813103        2.4949663104
 Ca         3.4915085222       22.4626119227        2.5150776143
  O         3.9272135306       20.5132391721        5.9595548383
  O         1.3697252107       20.6732492357        5.9429004868
  P         2.6617880784       21.4850935785        5.9728263777
 Ca         7.0526529690       16.3691394625        5.9498723677
  O        -0.8811199779       25.7901696055        5.9595933678
  O         0.2597531457       23.4956319506        5.9429133270
  P        -1.0897008553       24.2081327752        5.9728030191
 Ca         5.8572896718       22.4076589397        5.9498452023
  O        -3.0460642956       18.9870994516        5.9595617773
  O        -1.6297079637       21.1225074970        5.9429023124
  P        -1.5720377781       19.5978819310        5.9728537663
 Ca         1.2260727983       18.3533221816        5.9498833941
 Ca        -0.0000083259       21.7640022331        0.8228955104
 Ca         4.7120091208       19.0430304853        4.2216938535
 Ca         4.7119901334       19.0429837466        7.6431931061
 Ca         0.0000058099       21.7639983304        4.2429622809
  O         0.0000225645       16.3229879890        9.0473501196
  H        -0.0000107788       16.3230015309        8.1131483481
  O        -0.0004356090       16.3229813497        5.3574550040
  H         0.0001506379       16.3230068018        4.6277641197
  O         0.0002516439       16.3229583290        6.5480620806
  H        -0.0000262618       16.3230092484        7.3077780015
  O        -0.0000335681       16.3229609459        2.8503558936
  H         0.0000536501       16.3229975572        3.7771247527
  O       -12.1322690750       26.5805288270        1.2704649814
  O        -7.5294526726       25.1711526626        1.2703915228
  O        -8.6102388284       29.8623048625        1.2704278948
  O       -11.4361719879       30.5534971587        4.6951071605
  O       -16.0298415288       31.9494475561        4.6950548753
  O       -14.9419846776       27.2729513823        4.6950499023
  O       -11.4277704003       30.5489665192        7.1854103603
  O       -16.0301248402       31.9589928440        7.1854721061
  O       -14.9500988659       27.2679408374        7.1854382176
  O       -12.1224764286       26.5790693733        3.7648652799
  O        -7.5331047042       25.1803932774        3.7648714903
  O        -8.6164061892       29.8545400438        3.7648965042
  O       -13.3516988703       28.4552202360        2.5015846532
  O       -10.7946538812       28.2946246918        2.5179596017
  P       -12.0850242755       27.4808716019        2.4949466276
 Ca       -16.4871224760       32.5993588128        2.5150605647
  O        -8.5431553833       23.1776781710        2.5015086566
  O        -9.6825479939       25.4721619539        2.5179634876
  P        -8.3325847646       24.7619980363        2.4949866218
 Ca       -15.2764163067       26.5511190894        2.5150738682
  O        -6.3771830940       29.9811001292        2.5015809257
  O        -7.7947748554       27.8469530989        2.5179606860
  P        -7.8543297873       29.3712959900        2.4949438151
 Ca       -10.6444755021       30.6245949681        2.5150655960
  O       -10.2087643757       28.6752319616        5.9595795309
  O       -12.7661194488       28.8343965111        5.9429322830
  P       -11.4743306696       29.6469184885        5.9727705956
 Ca        -7.0833467518       24.5310690373        5.9498440722
  O         3.8309600047        1.3058960685        5.9595916414
  O       -13.8762506283       31.6575975117        5.9429217171
  P       -15.2257730604       32.3697554049        5.9727605342
 Ca        -8.2787026519       30.5696591436        5.9498476704
  O         1.6658498960       27.1490640441        5.9595745101
  O       -15.7656471762       29.2841355266        5.9429384250
  P       -15.7079764369       27.7593388653        5.9727830098
 Ca       -12.9098734197       26.5143572555        5.9498490610
 Ca       -14.1360128089       29.9250217188        0.8228329623
 Ca        -9.4240083858       27.2050243103        4.2216725186
 Ca        -9.4240044358       27.2050087119        7.6431020988
 Ca       -14.1360058442       29.9250317613        4.2429358109
  O         4.7119991653       24.4840894155        9.0473573621
  H         4.7119915571       24.4839904901        8.1132037450
  O         4.7119002128       24.4836048707        5.3574597548
  H         4.7119805536       24.4841477392        4.6277936105
  O         4.7119170894       24.4842720677        6.5480558664
  H         4.7119797624       24.4839789112        7.3077421219
  O         4.7120121860       24.4840008786        2.8503554606
  H         4.7119995841       24.4840452570        3.7771185472
  O        -2.7082785313       26.5805393218        1.2704638619
  O         1.8945541759       25.1711678904        1.2703975096
  O         0.8137575394       29.8623099904        1.2704358528
  O        -2.0121646622       30.5534945980        4.6951070834
  O        -6.6058347010       31.9494551843        4.6950509062
  O        -5.5180078185       27.2729367319        4.6950467027
  O        -2.0037715764       30.5489609065        7.1854076950
  O        -6.6061185357       31.9589984130        7.1854711451
  O        -5.5261210901       27.2679414943        7.1854424977
  O        -2.6984833004       26.5790714623        3.7648678947
  O         1.8909057701       25.1803937900        3.7648742770
  O         0.8075848601       29.8545450891        3.7649079703
  O        -3.9277067855       28.4552267087        2.5015838161
  O        -1.3706600434       28.2946310076        2.5179613696
  P        -2.6610125479       27.4808585277        2.4949430986
 Ca        -7.0631210185       32.5993503702        2.5150634106
  O         0.8808487227       23.1777045059        2.5015288169
  O        -0.2585645021       25.4721733983        2.5179556372
  P         1.0914136819       24.7619703440        2.4949809572
 Ca        -5.8523972052       26.5511436714        2.5150613319
  O       -15.8011785598       29.9811050996        2.5015867490
  O         1.6292216349       27.8469685118        2.5179700138
  P         1.5696765187       29.3712828050        2.4949287615
 Ca        -1.2204744970       30.6245831671        2.5150527464
  O        -0.7847699782       28.6752458925        5.9595776772
  O        -3.3421234358       28.8344039379        5.9429276523
  P        -2.0503193039       29.6469202654        5.9727740496
 Ca         2.3407248613       24.5310951973        5.9498873080
  O        13.2549584718        1.3059032868        5.9595921509
  O        -4.4522498121       31.6575958661        5.9429210318
  P        -5.8017752213       32.3697484867        5.9727627132
 Ca         1.1453357230       30.5696151452        5.9498230837
  O        -7.7581564570       27.1490440483        5.9595759660
  O        -6.3416378985       29.2841216714        5.9429250099
  P        -6.2839584499       27.7593504533        5.9727849076
 Ca        -3.4858950829       26.5143188984        5.9498441519
 Ca        -4.7120041777       29.9250179950        0.8228441933
 Ca         0.0000023150       27.2050052511        4.2216699977
 Ca         0.0000109194       27.2049751695        7.6431181689
 Ca        -4.7120009664       29.9250362022        4.2429381518
  O        -4.7119866493       24.4840652391        9.0473595582
  H        -4.7120104128       24.4839994619        8.1132085419
  O        -4.7123438768       24.4840512316        5.3574594405
  H        -4.7118871548       24.4839928128        4.6277786831
  O        -4.7118209987       24.4840378210        6.5480508190
  H        -4.7120192790       24.4840002806        7.3077162879
  O        -4.7120275098       24.4840353008        2.8503566830
  H        -4.7119583605       24.4839939525        3.7771217943
  O         0.4712609261       14.9624979821       16.0647706229
  C         0.1009714523       16.3059720094       16.0777996459
  O        -0.2694827040       17.6507560990       16.0914798809
     387
 i =        3, E =     -6915.8179929782
  O         2.0008225603        2.0945730135        1.2690334642
  O         6.6097097804        0.6856690835        1.2689771453
  O         5.5255218477        5.3817908454        1.2689856229
  O         2.7009441722        6.0700334086        4.6935026173
  O        -1.8948552521        7.4652701552        4.6935107766
  O        -0.8060396476        2.7877324350        4.6934320057
  O         2.7108851443        6.0670579030        7.1863010566
  O        -1.8972243392        7.4753582781        7.1862829202
  O        -0.8135742877        2.7806092725        7.1863537021
  O         2.0126450520        2.0946946872        3.7665286551
  O         6.6036720711        0.6958439572        3.7665489929
  O         5.5197160614        5.3714793961        3.7665700328
  O         0.7827322186        3.9715030356        2.4987146202
  O         3.3415756810        3.8137991559        2.5194934627
  P         2.0517706900        2.9960200282        2.4939517883
 Ca        -2.3505862857        8.1170765182        2.5159894278
  O       -13.2545959374       31.3379259868        2.4987205994
  O         4.4505680949        0.9868084816        2.5194904866
  P         5.8037029655        0.2789581176        2.4939627089
 Ca        -1.1422310873        2.0666519573        2.5160213677
  O         7.7598531993        5.4983488419        2.4986942198
  O         6.3438716882        3.3612261519        2.5194913637
  P         6.2805694746        4.8869678765        2.4939601074
 Ca         3.4928112472        6.1391753639        2.5159901915
  O         3.9286501282        4.1901788700        5.9623739319
  O         1.3695155037        4.3468334638        5.9413355739
  P         2.6610288507        5.1636381253        5.9739036223
 Ca         7.0487835032        0.0440376631        5.9499028122
  O        -0.8816401968        9.4690494856        5.9623592907
  O         0.2629522169        7.1742578060        5.9413346100
  P        -1.0901649432        7.8843413225        5.9739079432
 Ca         5.8611438168        6.0821791569        5.9498268853
  O        15.8007655364        2.6638152217        5.9623620237
  O        -1.6325625426        4.8022719364        5.9413453001
  P        -1.5707888270        3.2754740152        5.9739215298
 Ca         1.2262607580        2.0347867868        5.9498656805
 Ca        -0.0000035635        5.4409958716        0.8290734582
 Ca         4.7119959191        2.7200309978        4.2185474616
 Ca         4.7120070915        2.7199865289        7.6385719836
 Ca        -0.0000092082        5.4409814116        4.2465882242
  O        -0.0000136734        0.0000441917        9.0522905164
  H        -0.0000079085        0.0000034861        8.1275174133
  O        -0.0000462814       -0.0003260933        5.3764858492
  H        -0.0000315734        0.0001684506        4.5721232310
  O        -0.0001126259        0.0002207233        6.5295015274
  H        -0.0000062691       -0.0000251458        7.3612449120
  O         0.0000089683       -0.0000252252        2.8435929888
  H        -0.0000009993        0.0000307052        3.7651257839
  O        11.4248160742        2.0945797040        1.2690250362
  O        16.0337031522        0.6856639940        1.2689747030
  O        14.9495037496        5.3817922034        1.2689900078
  O        12.1249367429        6.0700428646        4.6935020697
  O         7.5291638945        7.4652667986        4.6935128147
  O         8.6179600110        2.7877413461        4.6934242759
  O        12.1348806773        6.0670706087        7.1863045623
  O         7.5267928214        7.4753565782        7.1862831597
  O         8.6104232468        2.7806229550        7.1863505447
  O        11.4366430142        2.0946971433        3.7665236616
  O        16.0276672216        0.6958416322        3.7665510028
  O        14.9437040482        5.3714775728        3.7665721581
  O        10.2067236825        3.9715153985        2.4986955647
  O        12.7655642667        3.8137994504        2.5194931910
  P        11.4757852725        2.9960094614        2.4939591388
 Ca         7.0733866505        8.1170881809        2.5159996496
  O        -3.8305993388       31.3379241434        2.4987159768
  O        13.8745611905        0.9868100372        2.5194903820
  P        15.2277091533        0.2789614635        2.4939620330
 Ca         8.2817564765        2.0666398849        2.5160308281
  O        -1.6641704224        5.4983444236        2.4987101595
  O        15.7678614564        3.3612190213        2.5194964505
  P        15.7045973396        4.8869748614        2.4939554062
 Ca        12.9168392703        6.1391693649        2.5159997782
  O        13.3526388007        4.1901858178        5.9623746662
  O        10.7935173028        4.3468402626        5.9413394195
  P        12.0850339421        5.1636231220        5.9739008698
 Ca        16.4727895612        0.0440302193        5.9498989210
  O         8.5423740198        9.4690577865        5.9623645135
  O         9.6869671707        7.1742613924        5.9413360520
  P         8.3338153528        7.8843317476        5.9739058192
 Ca        15.2851405590        6.0821843876        5.9498278485
  O         6.3767712833        2.6638187445        5.9623586989
  O         7.7914411941        4.8022788954        5.9413378739
  P         7.8532141637        3.2754572789        5.9739270134
 Ca        10.6502430598        2.0347854401        5.9498597055
 Ca         9.4239885885        5.4409887278        0.8291197214
 Ca        14.1360090242        2.7200315280        4.2185470678
 Ca        14.1360186893        2.7199866463        7.6385702041
 Ca         9.4239849904        5.4409747901        4.2466018690
  O         9.4239829560        0.0000180157        9.0522862336
  H         9.4239942510        0.0000057027        8.1275171488
  O         9.4240398274        0.0000757444        5.3764807932
  H         9.4239365790       -0.0000288213        4.5721353277
  O         9.4238564049       -0.0000723771        6.5295010840
  H         9.4240018446        0.0000239040        7.3612537512
  O         9.4240144208        0.0000021423        2.8435871341
  H         9.4239935238       -0.0000089061        3.7651240157
  O        -2.7111934961       10.2556468173        1.2690271304
  O         1.8977117179        8.8466929452        1.2689852595
  O         0.8135071748       13.5428049527        1.2690005709
  O        -2.0110797211       14.2311107984        4.6934451550
  O        -6.6068882236       15.6271081508        4.6933874963
  O        -5.5180491502       10.9487664639        4.6934099321
  O        -2.0011450519       14.2281281373        7.1862866314
  O        -6.6092894533       15.6372061649        7.1863521951
  O        -5.5255956034       10.9416183838        7.1863381982
  O        -2.6993475960       10.2557627626        3.7665015767
  O         1.8916799828        8.8568721042        3.7665572825
  O         0.8077032930       13.5324985060        3.7665559477
  O        -3.9293229663       12.1325573190        2.4986556141
  O        -1.3704581179       11.9748260493        2.5194879958
  P        -2.6601752126       11.1569705075        2.4939686408
 Ca        -7.0626229636       16.2791147674        2.5160520180
  O         0.8814242965        6.8532878046        2.4987121246
  O        -0.2614236476        9.1478225377        2.5195032292
  P         1.0917254073        8.4399628927        2.4939622722
 Ca        -5.8542216497       10.2285179504        2.5160545725
  O         3.0478840765       13.6593256555        2.4986685536
  O         1.6318472977       11.5222123153        2.5194832425
  P         1.5685494677       13.0480056964        2.4939538885
 Ca        -1.2191270737       14.3002080392        2.5160299937
  O        -0.7831650350       12.3519626734        5.9623383246
  O        -3.3424905250       12.5078424744        5.9413072109
  P        -2.0510786764       13.3248202354        5.9739539142
 Ca         2.3366970348        8.2059529590        5.9498888221
  O        -5.5936135586       17.6301569513        5.9623477655
  O        -4.4489352138       15.3360707728        5.9413174450
  P        -5.8021804020       16.0456534151        5.9739375870
 Ca         1.1491315403       14.2441984083        5.9498944865
  O        11.0887615761       10.8247995003        5.9623521839
  O        -6.3445787114       12.9632691718        5.9413199637
  P        -6.2827889433       11.4365209867        5.9739471996
 Ca        -3.4857808569       10.1957694987        5.9498746781
 Ca        -4.7119892636       13.6020090978        0.8291996825
 Ca         0.0000218667       10.8819802224        4.2185567380
 Ca         0.0000345249       10.8820213154        7.6386997608
 Ca        -4.7119971357       13.6020195759        4.2466464681
  O        14.1359831303        8.1610991205        9.0522946680
  H        14.1360046624        8.1609959719        8.1275090376
  O        14.1365255424        8.1609810704        5.3764879426
  H        14.1357507703        8.1610579387        4.5720885805
  O        14.1356828695        8.1612705852        6.5294956958
  H        14.1360515133        8.1609589438        7.3612211031
  O        14.1360287966        8.1611533235        2.8435955246
  H        14.1359547273        8.1610145159        3.7651281561
  O         6.7128243877       10.2556386041        1.2690296918
  O        11.3217111535        8.8466923811        1.2689735805
  O        10.2375192069       13.5428098253        1.2689804792
  O         7.4129527064       14.2311112565        4.6934564315
  O         2.8171020598       15.6271102455        4.6933955317
  O         3.9059621312       10.9487607491        4.6934083604
  O         7.4228728004       14.2281210119        7.1862978154
  O         2.8147010510       15.6372058337        7.1863465251
  O         3.8984192133       10.9416157449        7.1863278560
  O         6.7246651896       10.2557585935        3.7665038168
  O        11.3156780792        8.8568695650        3.7665504612
  O        10.2317053987       13.5324908558        3.7665420668
  O         5.4947090499       12.1325376297        2.4986767890
  O         8.0535620904       11.9748287638        2.5194885046
  P         6.7637852550       11.1569844031        2.4939649118
 Ca         2.3613684618       16.2791142154        2.5160216770
  O        10.3054255427        6.8532806859        2.4986924277
  O         9.1625883269        9.1478188241        2.5194964356
  P        10.5157161072        8.4399731139        2.4939763810
 Ca         3.5697603294       10.2285279547        2.5160369236
  O        -6.3761137349       13.6593307470        2.4986442855
  O        11.0558484875       11.5222181882        2.5194828052
  P        10.9925396796       13.0480046840        2.4939737377
 Ca         8.2048328714       14.3002003131        2.5160196143
  O         8.6408505681       12.3519590482        5.9623470671
  O         6.0815307079       12.5078535175        5.9413102415
  P         7.3729007686       13.3248153680        5.9739470317
 Ca        11.7606703272        8.2059467245        5.9498797856
  O         3.8304000826       17.6301589298        5.9623503358
  O         4.9750697643       15.3360674698        5.9413155254
  P         3.6218189357       16.0456553985        5.9739427962
 Ca        10.5731418373       14.2442508942        5.9498739684
  O         1.6647686062       10.8248022857        5.9623454998
  O         3.0794266348       12.9632745471        5.9413092253
  P         3.1411973227       11.4365122614        5.9739556805
 Ca         5.9382061521       10.1957562358        5.9498812491
 Ca         4.7119746229       13.6020078169        0.8291501046
 Ca         9.4240039963       10.8819773740        4.2185557534
 Ca         9.4240127474       10.8820026026        7.6386296431
 Ca         4.7119797470       13.6020185707        4.2466310234
  O         4.7120007743        8.1611100334        9.0522899902
  H         4.7120010685        8.1609987165        8.1275038009
  O         4.7124119972        8.1609772909        5.3764827738
  H         4.7117854376        8.1610706261        4.5720900590
  O         4.7117138408        8.1612860701        6.5294991858
  H         4.7120366398        8.1609615582        7.3612377255
  O         4.7120354641        8.1611463349        2.8435968437
  H         4.7119601167        8.1610190825        3.7651291333
  O        -7.4231880340       18.4175729091        1.2690290494
  O        -2.8143431792       17.0085928959        1.2689973157
  O        -3.8985671334       21.7039344867        1.2688942625
  O        -6.7230504801       22.3921594108        4.6934310623
  O       -11.3188452978       23.7881428045        4.6934224141
  O       -10.2300012926       19.1106889824        4.6933679274
  O        -6.7131087223       22.3891776201        7.1863227416
  O       -11.3212402717       23.7982487530        7.1863372930
  O       -10.2375375546       19.1035578184        7.1863550912
  O        -7.4113681469       18.4176886560        3.7665077036
  O        -2.8203730668       17.0187854002        3.7665149943
  O        -3.9043680866       21.6936232832        3.7666475846
  O        -8.6412763745       20.2945209979        2.4986487663
  O        -6.0824625509       20.1367494496        2.5194664660
  P        -7.3722027488       19.3190190983        2.4939742525
 Ca       -11.7746332779       24.4401798767        2.5160403380
  O        -3.8305300767       15.0146455753        2.4986285788
  O        -4.9734234684       17.3097578266        2.5194899121
  P        -3.6202881524       16.6016930900        2.4939671683
 Ca       -10.5662617818       18.3896572325        2.5160545562
  O        -1.6641594140       21.8213642625        2.4986770894
  O        -3.0800732149       19.6841208733        2.5194873780
  P        -3.1433318081       21.2098182520        2.4939642881
 Ca        -5.9311299282       22.4612727778        2.5160471919
  O        -5.4951967179       20.5129456373        5.9623385588
  O        -8.0546659689       20.6696293201        5.9413129261
  P        -6.7629473054       21.4860159442        5.9739350128
 Ca        -2.3753353385       16.3669959675        5.9498806431
  O       -10.3056705856       25.7917110975        5.9623742774
  O        -9.1609228358       23.4971103843        5.9413258025
  P       -10.5141636926       24.2070032457        5.9739404252
 Ca        -3.5628995306       22.4052478819        5.9498837324
  O         6.3768904618       18.9858505823        5.9623556702
  O       -11.0566371293       21.1246495105        5.9413245912
  P       -10.9948886619       19.5980774459        5.9739491725
 Ca        -8.1977540298       18.3578576049        5.9498949705
 Ca        -9.4240127469       21.7640110435        0.8292078390
 Ca        -4.7119540536       19.0430501809        4.2185864759
 Ca        -4.7119561011       19.0430070099        7.6386761539
 Ca        -9.4240077222       21.7639987040        4.2466316149
  O        -9.4240021676       16.3230000632        9.0522823098
  H        -9.4240097379       16.3229956376        8.1274921830
  O        -9.4244346410       16.3224247523        5.3764860036
  H        -9.4238447607       16.3232332721        4.5721095160
  O        -9.4238315869       16.3232023537        6.5295109395
  H        -9.4240551254       16.3229589107        7.3612648886
  O        -9.4240119855       16.3229298806        2.8435942877
  H        -9.4239659971       16.3230394585        3.7651259420
  O         2.0008237480       18.4175695022        1.2690443584
  O         6.6096796510       17.0086079686        1.2689900081
  O         5.5254638713       21.7039372967        1.2688822367
  O         2.7009786854       22.3921517641        4.6934270570
  O        -1.8948781390       23.7881480796        4.6934270183
  O        -0.8060242435       19.1106760568        4.6933651622
  O         2.7109130649       22.3891663980        7.1863184534
  O        -1.8972760765       23.7982523049        7.1863374015
  O        -0.8135583563       19.1035544106        7.1863420346
  O         2.0126469344       18.4176850442        3.7665173047
  O         6.6036457647       17.0187893667        3.7665136921
  O         5.5196491042       21.6936187762        3.7666369582
  O         0.7827409042       20.2945058152        2.4986800976
  O         3.3415627164       20.1367531819        2.5194813036
  P         2.0517618599       19.3190218637        2.4939532186
 Ca        -2.3506063070       24.4401594995        2.5160170299
  O         5.5934893110       15.0146691667        2.4986428079
  O         4.4505928326       17.3097638508        2.5194862116
  P         5.8036808779       16.6016719843        2.4939743053
 Ca        -1.1422359166       18.3896887952        2.5160244240
  O       -11.0881169867       21.8213756946        2.4986456763
  O         6.3439455883       19.6841346834        2.5194859641
  P         6.2806193025       21.2098063350        2.4939769127
 Ca         3.4928161338       22.4612699584        2.5160264565
  O         3.9288331019       20.5129347417        5.9623402034
  O         1.3693433797       20.6696397275        5.9413081390
  P         2.6610218469       21.4860224272        5.9739460571
 Ca         7.0486996630       16.3670313396        5.9498946681
  O        -0.8816818229       25.7917168286        5.9623756175
  O         0.2630551399       23.4971090630        5.9413182096
  P        -1.0901236496       24.2070050510        5.9739411924
 Ca         5.8611042207       22.4052825934        5.9498634940
  O        -3.0471360983       18.9858396586        5.9623499139
  O        -1.6326463697       21.1246501833        5.9413089663
  P        -1.5708576754       19.5980720367        5.9739650717
 Ca         1.2262159096       18.3578145098        5.9499014932
 Ca        -0.0000104643       21.7640058863        0.8291228126
 Ca         4.7120149675       19.0430399343        4.2185839990
 Ca         4.7119943760       19.0429874056        7.6386572872
 Ca         0.0000032967       21.7639971854        4.2466134235
  O         0.0000237399       16.3229847931        9.0522810038
  H        -0.0000061532       16.3230022196        8.1274725654
  O        -0.0005585860       16.3229729172        5.3764901542
  H         0.0002413745       16.3230127717        4.5720966749
  O         0.0003310876       16.3229422206        6.5295184522
  H        -0.0000727907       16.3230187118        7.3612744329
  O        -0.0000310770       16.3229537264        2.8435970662
  H         0.0000525483       16.3229975053        3.7651287043
  O       -12.1351629998       26.5785716403        1.2690396988
  O        -7.5263083426       25.1696361916        1.2689621184
  O        -8.6104946955       29.8657888490        1.2689945985
  O       -11.4350854091       30.5540606823        4.6934820074
  O       -16.0308780927       31.9500970976        4.6934334121
  O       -14.9420379742       27.2717347892        4.6934262681
  O       -11.4251455505       30.5510821610        7.1863175866
  O       -16.0332713212       31.9601938476        7.1863745102
  O       -14.9495721100       27.2646135367        7.1863486124
  O       -12.1233483742       26.5786995178        3.7665258876
  O        -7.5323394148       25.1798297612        3.7665356508
  O        -8.6162957999       29.8554765032        3.7665631491
  O       -13.3532482170       28.4554829017        2.4987257575
  O       -10.7944338774       28.2977853548        2.5194891710
  P       -12.0842518832       27.4800766793        2.4939520348
 Ca       -16.4866086960       32.6011660663        2.5160040017
  O        -8.5425979867       23.1761944015        2.4986422501
  O        -9.6854021016       25.4707762402        2.5194932804
  P        -8.3322819637       24.7630537671        2.4939878380
 Ca       -15.2782419200       26.5506762424        2.5160178927
  O        -6.3761703588       29.9823197079        2.4987224386
  O        -7.7921442853       27.8451762785        2.5194889836
  P        -7.8554028683       29.3710187752        2.4939517878
 Ca       -10.6431671588       30.6232389009        2.5160097306
  O       -10.2071449811       28.6749358363        5.9623618045
  O       -12.7664871665       28.8308103996        5.9413364592
  P       -11.4750949234       29.6478284490        5.9739154941
 Ca        -7.0873039583       24.5289515783        5.9498627389
  O         3.8303968511        1.3074572581        5.9623722481
  O       -13.8729509676       31.6590650580        5.9413236859
  P       -15.2261887775       32.3686368592        5.9739065964
 Ca        -8.2748860493       30.5672748449        5.9498705758
  O         1.6647718011       27.1477998006        5.9623566254
  O       -15.7685727099       29.2862667244        5.9413427110
  P       -15.7067925335       27.7595275391        5.9739237082
 Ca       -12.9097306342       26.5188455908        5.9498712007
 Ca       -14.1360140224       29.9250222396        0.8290543167
 Ca        -9.4240070536       27.2050261787        4.2185639423
 Ca        -9.4240057136       27.2050133917        7.6385762571
 Ca       -14.1360073518       29.9250337741        4.2465860089
  O         4.7119919120       24.4841022539        9.0522861991
  H         4.7119905565       24.4839947629        8.1274983014
  O         4.7118943726       24.4835011778        5.3764855824
  H         4.7119904837       24.4842343287        4.5721173955
  O         4.7119176326       24.4843667548        6.5295105447
  H         4.7119846470       24.4839345758        7.3612670535
  O         4.7120129960       24.4840085685        2.8435956388
  H         4.7120005522       24.4840424547        3.7651258567
  O        -2.7111732437       26.5785820956        1.2690377410
  O         1.8976990695       25.1696522745        1.2689703319
  O         0.8135013511       29.8657942910        1.2690022240
  O        -2.0110792756       30.5540574419        4.6934830620
  O        -6.6068711535       31.9501039327        4.6934279831
  O        -5.5180615952       27.2717220271        4.6934236670
  O        -2.0011447175       30.5510791349        7.1863180523
  O        -6.6092645102       31.9601989664        7.1863731799
  O        -5.5255946276       27.2646102568        7.1863555692
  O        -2.6993556170       26.5787021988        3.7665286745
  O         1.8916721644       25.1798317417        3.7665392519
  O         0.8076967910       29.8554801839        3.7665721198
  O        -3.9292563184       28.4554889449        2.4987244585
  O        -1.3704403328       28.2977916973        2.5194910691
  P        -2.6602406313       27.4800645104        2.4939492433
 Ca        -7.0626070470       32.6011571275        2.5160077171
  O         0.8814067228       23.1762203853        2.4986674127
  O        -0.2614163751       25.4707881676        2.5194866477
  P         1.0917143005       24.7630268268        2.4939802155
 Ca        -5.8542205333       26.5507015214        2.5160071863
  O       -15.8001659653       29.9823247846        2.4987283658
  O         1.6318528653       27.8451897576        2.5194985759
  P         1.5686016972       29.3710089807        2.4939405077
 Ca        -1.2191654334       30.6232269907        2.5159973324
  O        -0.7831490877       28.6749505409        5.9623612094
  O        -3.3424899149       28.8308178388        5.9413330573
  P        -2.0510862579       29.6478279111        5.9739131585
 Ca         2.3367675350       24.5289799663        5.9499151742
  O        13.2543958932        1.3074644945        5.9623719241
  O        -4.4489487317       31.6590631123        5.9413225413
  P        -5.8021909958       32.3686320326        5.9739100908
 Ca         1.1491529400       30.5672303906        5.9498391821
  O        -7.7592331905       27.1477780640        5.9623601002
  O        -6.3445639343       29.2862532975        5.9413299585
  P        -6.2827775866       27.7595399719        5.9739198426
 Ca        -3.4857491973       26.5188099815        5.9498654154
 Ca        -4.7120048750       29.9250190271        0.8290662282
 Ca         0.0000043938       27.2050057414        4.2185607414
 Ca         0.0000130641       27.2049726810        7.6385938725
 Ca        -4.7120021522       29.9250388092        4.2465882161
  O        -4.7119839346       24.4840756533        9.0522913063
  H        -4.7120055828       24.4839985661        8.1275033546
  O        -4.7124389471       24.4840707319        5.3764887798
  H        -4.7118162541       24.4839850659        4.5721074702
  O        -4.7117639507       24.4840550017        6.5295026530
  H        -4.7120529002       24.4839973029        7.3612375008
  O        -4.7120262639       24.4840413231        2.8435979227
  H        -4.7119585492       24.4839929371        3.7651276668
  O         0.4633866757       14.9910656787       16.0652085835
  C         0.1009596766       16.3060091228       16.0776291816
  O        -0.2616667301       17.6219747160       16.0908690887
     387
 i =        4, E =     -6916.2113792012
  O         1.9953699253        2.0911200477        1.2666507464
  O         6.6154282122        0.6826866616        1.2665939304
  O         5.5252499413        5.3882223612        1.2665889320
  O         2.7030590075        6.0716657513        4.6895949846
  O        -1.8973420080        7.4662976958        4.6896044157
  O        -0.8056579407        2.7850860077        4.6895108073
  O         2.7158751709        6.0705654990        7.1874307132
  O        -1.9027730254        7.4779391628        7.1874203855
  O        -0.8129962484        2.7745315467        7.1875054262
  O         2.0109064767        2.0934962998        3.7700609764
  O         6.6055906027        0.6949515999        3.7700818374
  O         5.5195421109        5.3735588145        3.7701041170
  O         0.7784562937        3.9731559754        2.4935869116
  O         3.3412987668        3.8193089772        2.5222204894
  P         2.0555714206        2.9941161188        2.4913485657
 Ca        -2.3493061702        8.1205162247        2.5178044432
  O       -13.2538681711       31.3333833117        2.4935983693
  O         4.4459081759        0.9838248095        2.5222167522
  P         5.8034499610        0.2831665534        2.4913532242
 Ca        -1.1458775952        2.0660551441        2.5178348940
  O         7.7634238324        5.5012326835        2.4935608374
  O         6.3488054227        3.3586740698        2.5222146326
  P         6.2770275565        4.8846549547        2.4913661448
 Ca         3.4951673843        6.1363088845        2.5178015836
  O         3.9329446492        4.1885345567        5.9672051397
  O         1.3695241853        4.3407165692        5.9383567232
  P         2.6573257614        5.1655207571        5.9774772951
 Ca         7.0423600258        0.0402009548        5.9500330986
  O        -0.8823654473        9.4735936283        5.9671939984
  O         0.2682527843        7.1773522822        5.9383597397
  P        -1.0899566858        7.8801399963        5.9774692861
 Ca         5.8677096014        6.0785133401        5.9499345161
  O        15.7971477276        2.6609097484        5.9671921852
  O        -1.6378582457        4.8053447200        5.9383680177
  P        -1.5672944648        3.2776965889        5.9774901150
 Ca         1.2261378055        2.0423013112        5.9499825526
 Ca        -0.0000053990        5.4409892314        0.8401538154
 Ca         4.7119979533        2.7200457458        4.2126832302
 Ca         4.7120108746        2.7199867601        7.6304571387
 Ca        -0.0000136597        5.4409748120        4.2536894858
  O        -0.0000208988        0.0000593875        9.0633291430
  H        -0.0000123231        0.0000112008        8.1502223130
  O        -0.0000384622       -0.0004711846        5.3757030121
  H        -0.0000362352        0.0002625482        4.5223206044
  O        -0.0001303222        0.0003226656        6.5297074383
  H         0.0000038300       -0.0000603548        7.4135909900
  O         0.0000115490       -0.0000271405        2.8305579619
  H         0.0000008105        0.0000302631        3.7439955004
  O        11.4193622969        2.0911284976        1.2666408217
  O        16.0394221116        0.6826817516        1.2665910696
  O        14.9492305814        5.3882237050        1.2665956180
  O        12.1270513410        6.0716763115        4.6895952571
  O         7.5266759420        7.4662932141        4.6896034830
  O         8.6183401280        2.7850977388        4.6895019018
  O        12.1398704755        6.0705789748        7.1874333679
  O         7.5212449691        7.4779354199        7.1874209819
  O         8.6110016638        2.7745454517        7.1875020523
  O        11.4349044453        2.0935003635        3.7700544628
  O        16.0295870656        0.6949496080        3.7700853845
  O        14.9435288806        5.3735570726        3.7701062068
  O        10.2024469888        3.9731697333        2.4935633436
  O        12.7652871099        3.8193109487        2.5222196651
  P        11.4795853236        2.9941032790        2.4913565754
 Ca         7.0746636847        8.1205308786        2.5178161995
  O        -3.8298717159       31.3333818063        2.4935945186
  O        13.8699021778        0.9838264730        2.5222167186
  P        15.2274528857        0.2831689304        2.4913514896
 Ca         8.2781097519        2.0660409333        2.5178478497
  O        -1.6605998188        5.5012294143        2.4935809813
  O        15.7727941697        3.3586675699        2.5222204445
  P        15.7010533811        4.8846603419        2.4913608342
 Ca        12.9191994353        6.1363014921        2.5178123290
  O        13.3569335748        4.1885421181        5.9672055042
  O        10.7935256575        4.3407244253        5.9383608545
  P        12.0813302541        5.1655075103        5.9774755511
 Ca        16.4663626837        0.0401931717        5.9500261085
  O         8.5416499345        9.4735981702        5.9671981749
  O         9.6922670002        7.1773566859        5.9383608459
  P         8.3340284274        7.8801337365        5.9774699682
 Ca        15.2917068870        6.0785172424        5.9499353231
  O         6.3731517664        2.6609128577        5.9671888613
  O         7.7861452539        4.8053495067        5.9383601517
  P         7.8567104655        3.2776832958        5.9774928666
 Ca        10.6501181120        2.0422963037        5.9499770805
 Ca         9.4239863196        5.4409819228        0.8402111978
 Ca        14.1360124970        2.7200457648        4.2126827080
 Ca        14.1360225560        2.7199861667        7.6304556713
 Ca         9.4239798946        5.4409674098        4.2537057202
  O         9.4239758307        0.0000285598        9.0633208547
  H         9.4239919758        0.0000069103        8.1502188852
  O         9.4240808248        0.0001129350        5.3756975402
  H         9.4239117962       -0.0000438930        4.5223258297
  O         9.4238137400       -0.0001050857        6.5297044129
  H         9.4240184320        0.0000442622        7.4136118081
  O         9.4240163587        0.0000005750        2.8305515195
  H         9.4239960341       -0.0000090331        3.7439939389
  O        -2.7166455874       10.2522041917        1.2666372885
  O         1.9034294599        8.8437236630        1.2665980467
  O         0.8132313162       13.5492480851        1.2666030992
  O        -2.0089722516       14.2327501993        4.6895410442
  O        -6.6093757474       15.6280974066        4.6894796698
  O        -5.5176694488       10.9461378645        4.6894961871
  O        -1.9961649423       14.2316636617        7.1874394097
  O        -6.6148382497       15.6397346559        7.1875019067
  O        -5.5250154024       10.9355536964        7.1874934661
  O        -2.7010808667       10.2545754246        3.7700388378
  O         1.8935946829        8.8559889572        3.7700866187
  O         0.8075236413       13.5345953092        3.7700981680
  O        -3.9335896684       12.1342011050        2.4935229133
  O        -1.3707323901       11.9803494503        2.5222137231
  P        -2.6563882004       11.1550817946        2.4913633286
 Ca        -7.0613439024       16.2825620906        2.5178652378
  O         0.8821505260        6.8487555871        2.4935839281
  O        -0.2660722628        9.1448355578        2.5222309443
  P         1.0914733563        8.4441860114        2.4913622996
 Ca        -5.8578635858       10.2278862946        2.5178709954
  O         3.0514538229       13.6622060873        2.4935391651
  O         1.6367634188       11.5196619935        2.5222066659
  P         1.5650241916       13.0457007915        2.4913532010
 Ca        -1.2167629003       14.2973533295        2.5178468535
  O        -0.7788547590       12.3502895011        5.9671720898
  O        -3.3424745957       12.5017351686        5.9383305443
  P        -2.0547847195       13.3267176844        5.9774985254
 Ca         2.3302619381        8.2020917936        5.9500120644
  O        -5.5943369345       17.6347343233        5.9671796176
  O        -4.4436264409       15.3391204060        5.9383376181
  P        -5.8019804049       16.0415185072        5.9774923873
 Ca         1.1556979460       14.2405272888        5.9500085155
  O        11.0851535876       10.8219004723        5.9671849801
  O        -6.3498871313       12.9663508318        5.9383408201
  P        -6.2793005551       11.4387459979        5.9775059710
 Ca        -3.4859066957       10.2032737905        5.9499871692
 Ca        -4.7119930538       13.6020094273        0.8402912042
 Ca         0.0000275253       10.8819731460        4.2126924291
 Ca         0.0000438477       10.8820171485        7.6305878661
 Ca        -4.7120007453       13.6020238756        4.2537455192
  O        14.1359848071        8.1611342953        9.0633358738
  H        14.1359970433        8.1609943687        8.1502223877
  O        14.1367524240        8.1609646121        5.3757002370
  H        14.1356083866        8.1610762251        4.5223035875
  O        14.1355248351        8.1613826543        6.5297032188
  H        14.1361101673        8.1609128904        7.4135482764
  O        14.1360300480        8.1611950269        2.8305597377
  H        14.1359565263        8.1610120904        3.7439940510
  O         6.7073728031       10.2521950738        1.2666407032
  O        11.3274274816        8.8437215852        1.2665870243
  O        10.2372468626       13.5492509703        1.2665846801
  O         7.4150590232       14.2327487295        4.6895498248
  O         2.8146107226       15.6281000922        4.6894894534
  O         3.9063400630       10.9461336374        4.6894955032
  O         7.4278544439       14.2316538111        7.1874462435
  O         2.8091481540       15.6397344599        7.1875018210
  O         3.8989984232       10.9355515019        7.1874812113
  O         6.7229322904       10.2545702837        3.7700400534
  O        11.3175939667        8.8559858487        3.7700808367
  O        10.2315264992       13.5345867302        3.7700853237
  O         5.4904384004       12.1341838755        2.4935468333
  O         8.0532838782       11.9803479154        2.5222138699
  P         6.7675829566       11.1550958674        2.4913609719
 Ca         2.3626488689       16.2825628508        2.5178330009
  O        10.3061513130        6.8487471055        2.4935603798
  O         9.1579382080        9.1448314168        2.5222232814
  P        10.5154666711        8.4441968518        2.4913726218
 Ca         3.5661179601       10.2278957666        2.5178523151
  O        -6.3725419694       13.6622113351        2.4935122801
  O        11.0607664892       11.5196650429        2.5222062728
  P        10.9890106211       13.0457034471        2.4913674826
 Ca         8.2071945046       14.2973460862        2.5178365585
  O         8.6451619668       12.3502839366        5.9671804091
  O         6.0815415167       12.5017421240        5.9383322559
  P         7.3692026320       13.3267201455        5.9774973437
 Ca        11.7542319192        8.2020846172        5.9499999382
  O         3.8296756317       17.6347361896        5.9671840407
  O         4.9803722978       15.3391184910        5.9383350856
  P         3.6220286989       16.0415186076        5.9774941401
 Ca        10.5797057336       14.2405852520        5.9499867699
  O         1.6611561393       10.8219036871        5.9671780662
  O         3.0741165581       12.9663567528        5.9383292060
  P         3.1446924517       11.4387362819        5.9775138595
 Ca         5.9380793116       10.2032602590        5.9499977839
 Ca         4.7119701044       13.6020078400        0.8402341257
 Ca         9.4240064643       10.8819724236        4.2126918833
 Ca         9.4240148831       10.8820001225        7.6305121601
 Ca         4.7119770272       13.6020221633        4.2537302376
  O         4.7120027837        8.1611482808        9.0633281470
  H         4.7119938004        8.1609995849        8.1502171807
  O         4.7125987769        8.1609547755        5.3756959627
  H         4.7116681566        8.1610930010        4.5223026035
  O         4.7115821297        8.1613993465        6.5297057127
  H         4.7120863807        8.1609142619        7.4135676335
  O         4.7120370983        8.1611872089        2.8305603583
  H         4.7119613897        8.1610173169        3.7439952485
  O        -7.4286397085       18.4141165454        1.2666459834
  O        -2.8086299658       17.0055917663        1.2666122038
  O        -3.8988442313       21.7104116323        1.2664869395
  O        -6.7209286189       22.3938167946        4.6895138159
  O       -11.3213309117       23.7891481639        4.6895177584
  O       -10.2296176081       19.1080242619        4.6894440923
  O        -6.7081156928       22.3927299120        7.1874794129
  O       -11.3267854165       23.8008033087        7.1874742499
  O       -10.2369539006       19.0974602376        7.1875182131
  O        -7.4131082376       18.4164847014        3.7700429058
  O        -2.8184594375       17.0178750765        3.7700450934
  O        -3.9045541734       21.6957572836        3.7701959202
  O        -8.6455449950       20.2961684619        2.4935137032
  O        -6.0827372145       20.1422446573        2.5221906904
  P        -7.3684209031       19.3171222952        2.4913652861
 Ca       -11.7733543987       24.4436398084        2.5178552100
  O        -3.8297990411       15.0101757891        2.4934933266
  O        -4.9780713445       17.3067560613        2.5222146582
  P        -3.6205493523       16.6058830037        2.4913611011
 Ca       -10.5699127108       18.3890617354        2.5178726966
  O        -1.6606024148       21.8242447010        2.4935481290
  O        -3.0751227474       19.6815350595        2.5222123573
  P        -3.1468596021       21.2074828287        2.4913615661
 Ca        -5.9287656484       22.4584391725        2.5178649375
  O        -5.4908859682       20.5112551326        5.9671701213
  O        -8.0546780465       20.6634785546        5.9383352101
  P        -6.7666563745       21.4879486933        5.9774886664
 Ca        -2.3817674194       16.3631534497        5.9499884967
  O       -10.3063956398       25.7962311444        5.9672065143
  O        -9.1556180348       23.5001825819        5.9383479767
  P       -10.5139542207       24.2028793792        5.9775046426
 Ca        -3.5563339388       22.4015881045        5.9499998533
  O         6.3732867458       18.9829568923        5.9671918270
  O       -11.0619665675       21.1277827805        5.9383461335
  P       -10.9913872378       19.6002584538        5.9775036327
 Ca        -8.1978834482       18.3653744282        5.9500134792
 Ca        -9.4240163014       21.7640138981        0.8403027123
 Ca        -4.7119418407       19.0430677569        4.2127223452
 Ca        -4.7119532405       19.0430182457        7.6305574481
 Ca        -9.4240120654       21.7639957540        4.2537349285
  O        -9.4240062883       16.3229966029        9.0633166520
  H        -9.4240063130       16.3230005721        8.1502116109
  O        -9.4246011875       16.3221919658        5.3757023804
  H        -9.4237442230       16.3233776090        4.5223149666
  O        -9.4237201853       16.3233302317        6.5297174471
  H        -9.4240988935       16.3229180555        7.4135969832
  O        -9.4240103650       16.3229170952        2.8305570508
  H        -9.4239652145       16.3230378710        3.7439950508
  O         1.9953723169       18.4141087095        1.2666582065
  O         6.6153890107       17.0056061338        1.2666111600
  O         5.5251885236       21.7104152247        1.2664701435
  O         2.7030999906       22.3938050373        4.6895117706
  O        -1.8973669713       23.7891545828        4.6895258570
  O        -0.8056426480       19.1080135058        4.6894439928
  O         2.7159080374       22.3927168564        7.1874791009
  O        -1.9028215670       23.8008079046        7.1874730529
  O        -0.8129707756       19.0974502232        7.1875157453
  O         2.0109075562       18.4164804934        3.7700515047
  O         6.6055586427       17.0178799344        3.7700417673
  O         5.5194642960       21.6957520261        3.7701853232
  O         0.7784721966       20.2961510879        2.4935506963
  O         3.3412845455       20.1422435517        2.5222058815
  P         2.0555507438       19.3171315361        2.4913513992
 Ca        -2.3493238532       24.4436172999        2.5178273016
  O         5.5942197242       15.0101970394        2.4935099655
  O         4.4459400995       17.3067642143        2.5222107671
  P         5.8034318482       16.6058648633        2.4913636688
 Ca        -1.1458845264       18.3890985271        2.5178409231
  O       -11.0845604220       21.8242553064        2.4935099446
  O         6.3488977833       19.6815485669        2.5222105358
  P         6.2770956238       21.2074726045        2.4913753988
 Ca         3.4951739509       22.4584373939        2.5178429505
  O         3.9331425630       20.5112444918        5.9671738742
  O         1.3693270054       20.6634844715        5.9383312814
  P         2.6573218571       21.4879569869        5.9774930159
 Ca         7.0422723371       16.3631896102        5.9500120775
  O        -0.8824080118       25.7962372344        5.9672079747
  O         0.2683628669       23.5001778500        5.9383386746
  P        -1.0899217903       24.2028831825        5.9775082524
 Ca         5.8676685198       22.4016280760        5.9499749355
  O        -3.0507353819       18.9829455494        5.9671883018
  O        -1.6379756318       21.1277795022        5.9383311404
  P        -1.5673666006       19.6002588263        5.9775040773
 Ca         1.2260868277       18.3653319293        5.9500157135
 Ca        -0.0000146743       21.7640108092        0.8402003243
 Ca         4.7120248114       19.0430566080        4.2127196217
 Ca         4.7119998834       19.0429930263        7.6305318477
 Ca        -0.0000000136       21.7639951447        4.2537130205
  O         0.0000271813       16.3229797502        9.0633222766
  H         0.0000012707       16.3230031725        8.1502159748
  O        -0.0007960941       16.3229603739        5.3757108975
  H         0.0003828104       16.3230216871        4.5223091612
  O         0.0005002701       16.3229164619        6.5297269486
  H        -0.0001430609       16.3230328742        7.4135859799
  O        -0.0000303428       16.3229403676        2.8305607727
  H         0.0000534906       16.3229971295        3.7439961547
  O       -12.1406137461       26.5751245783        1.2666618933
  O        -7.5205920311       25.1666584415        1.2665737550
  O        -8.6107680762       29.8722263868        1.2666033229
  O       -11.4329773753       30.5557025252        4.6895672616
  O       -16.0333681027       31.9510804803        4.6895201180
  O       -14.9416578458       27.2690947615        4.6895078145
  O       -11.4201656447       30.5546036051        7.1874586363
  O       -16.0388201462       31.9627195985        7.1875156425
  O       -14.9489956367       27.2585454128        7.1874963953
  O       -12.1250828785       26.5775064945        3.7700574845
  O        -7.5304218836       25.1789392459        3.7700726366
  O        -8.6164741909       29.8575668049        3.7701053646
  O       -13.3575217988       28.4571322966        2.4936046341
  O       -10.7947077099       28.3033016421        2.5222160862
  P       -12.0804566938       27.4781747070        2.4913457922
 Ca       -16.4853267993       32.6046315451        2.5178119563
  O        -8.5418704353       23.1716623998        2.4935066522
  O        -9.6900591546       25.4677902553        2.5222218296
  P        -8.3325331053       24.7672603707        2.4913775507
 Ca       -15.2818889983       26.5500829950        2.5178279120
  O        -6.3725994772       29.9852042799        2.4936020589
  O        -7.7872215419       27.8426262937        2.5222143129
  P        -7.8589370787       29.3686996855        2.4913480926
 Ca       -10.6408077334       30.6203849570        2.5178193966
  O       -10.2028341337       28.6732571861        5.9671933435
  O       -12.7664727913       28.8246977544        5.9383574343
  P       -11.4788005477       29.6497229228        5.9774877156
 Ca        -7.0937372295       24.5250906675        5.9499743026
  O         3.8296752932        1.3120318282        5.9672026242
  O       -13.8676465845       31.6621176150        5.9383411723
  P       -15.2259839505       32.3644956762        5.9774777120
 Ca        -8.2683179197       30.5636087576        5.9499879090
  O         1.6611563308       27.1448949503        5.9671877854
  O       -15.7738793065       29.2893498039        5.9383644851
  P       -15.7032925999       27.7617517091        5.9774927050
 Ca       -12.9098549697       26.5263596734        5.9499892025
 Ca       -14.1360167232       29.9250248481        0.8401208220
 Ca        -9.4240052991       27.2050294157        4.2126998790
 Ca        -9.4240073083       27.2050197485        7.6304576968
 Ca       -14.1360098902       29.9250394132        4.2536823646
  O         4.7119850151       24.4841274910        9.0633200041
  H         4.7119894860       24.4840006550        8.1502119506
  O         4.7118781801       24.4832959612        5.3757024712
  H         4.7120013481       24.4843691683        4.5223174756
  O         4.7119134273       24.4845570275        6.5297165736
  H         4.7119880981       24.4838674692        7.4136069731
  O         4.7120144964       24.4840198585        2.8305586746
  H         4.7120019535       24.4840399791        3.7439960984
  O        -2.7166248551       26.5751348237        1.2666588423
  O         1.9034163579       25.1666758671        1.2665843303
  O         0.8132282067       29.8722324776        1.2666109719
  O        -2.0089722790       30.5556975773        4.6895695499
  O        -6.6093603475       31.9510869011        4.6895131823
  O        -5.5176840338       27.2690846046        4.6895058165
  O        -1.9961620191       30.5546031421        7.1874621001
  O        -6.6148126042       31.9627244425        7.1875143516
  O        -5.5250196339       27.2585370841        7.1875065737
  O        -2.7010903619       26.5775092887        3.7700609548
  O         1.8935914578       25.1789422872        3.7700764634
  O         0.8075203474       29.8575685958        3.7701113713
  O        -3.9335290432       28.4571369405        2.4936035164
  O        -1.3707140179       28.3033082528        2.5222185395
  P        -2.6564476186       27.4781643497        2.4913433499
 Ca        -7.0613244290       32.6046208903        2.5178164082
  O         0.8821346133       23.1716873625        2.4935379270
  O        -0.2660710410       25.4678026557        2.5222154613
  P         1.0914604032       24.7672359825        2.4913692079
 Ca        -5.8578639826       26.5501112512        2.5178181162
  O       -15.7965938390       29.9852100047        2.4936078799
  O         1.6367766158       27.8426381579        2.5222247688
  P         1.5650642258       29.3686934155        2.4913409050
 Ca        -1.2168064794       30.6203721214        2.5178064224
  O        -0.7788360033       28.6732731122        5.9671942738
  O        -3.3424741217       28.8247054803        5.9383555011
  P        -2.0547948418       29.6497209961        5.9774788762
 Ca         2.3303400986       24.5251232042        5.9500417456
  O        13.2536749693        1.3120396767        5.9672013857
  O        -4.4436427294       31.6621153198        5.9383395068
  P        -5.8019857564       32.3644929185        5.9774819086
 Ca         1.1557242051       30.5635604743        5.9499460440
  O        -7.7628473752       27.1448700991        5.9671939010
  O        -6.3498707276       29.2893367980        5.9383517512
  P        -6.2792800930       27.7617643230        5.9774813947
 Ca        -3.4858725300       26.5263247361        5.9499810539
 Ca        -4.7120064740       29.9250221529        0.8401320703
 Ca         0.0000070683       27.2050064279        4.2126959379
 Ca         0.0000163476       27.2049681115        7.6304785057
 Ca        -4.7120041906       29.9250455194        4.2536838764
  O        -4.7119793845       24.4840967948        9.0633292513
  H        -4.7119983583       24.4839967281        8.1502162552
  O        -4.7126224344       24.4841035978        5.3757047559
  H        -4.7117064187       24.4839734151        4.5223130553
  O        -4.7116406935       24.4840798552        6.5297093667
  H        -4.7121040649       24.4839931638        7.4135711480
  O        -4.7120262859       24.4840532111        2.8305622180
  H        -4.7119568349       24.4839909435        3.7439967289
  O         0.4496621599       15.0406625436       16.0659389072
  C         0.1009298587       16.3060881964       16.0773589442
  O        -0.2481919085       17.5718280687       16.0897653903
     387
 i =        5, E =     -6916.7957800116
  O         1.9810667998        2.0819971091        1.2603930087
  O         6.6304547913        0.6748759121        1.2603343432
  O         5.5244937206        5.4051181573        1.2603032273
  O         2.7080619845        6.0746160263        4.6804390679
  O        -1.9024281133        7.4691752810        4.6804440560
  O        -0.8055346642        2.7792764460        4.6803187472
  O         2.7286237619        6.0797112624        7.1903846500
  O        -1.9170880102        7.4844332513        7.1903972032
  O        -0.8113733877        2.7589362423        7.1905093614
  O         2.0067088839        2.0914129845        3.7770832099
  O         6.6095097910        0.6923849113        3.7770976363
  O         5.5198214948        5.3781627244        3.7771326233
  O         0.7682087349        3.9766495046        2.4785197870
  O         3.3399669385        3.8335841714        2.5293392624
  P         2.0638151548        2.9891230996        2.4854228049
 Ca        -2.3456074577        8.1297230819        2.5231979121
  O       -13.2517267556       31.3227119897        2.4785340410
  O         4.4341460947        0.9755592005        2.5293287441
  P         5.8036500671        0.2927529656        2.4854206579
 Ca        -1.1557727187        2.0647081073        2.5232246770
  O         7.7715796267        5.5083678228        2.4784797781
  O         6.3618748472        3.3525999402        2.5293255488
  P         6.2685961822        4.8800737625        2.4854512656
 Ca         3.5013325060        6.1284048828        2.5231841297
  O         3.9431260636        4.1850053598        5.9804636476
  O         1.3702571844        4.3252041199        5.9299868294
  P         2.6494142303        5.1703881322        5.9859686061
 Ca         7.0270286757        0.0299821637        5.9506739377
  O        -0.8843959597        9.4841617232        5.9804583867
  O         0.2813530111        7.1858004680        5.9299993798
  P        -1.0902511649        7.8707455683        5.9859316313
 Ca         5.8843124236        6.0702959771        5.9505308681
  O        15.7888910915        2.6538384670        5.9804480247
  O        -1.6516229324        4.8124923205        5.9300020056
  P        -1.5590992269        3.2820312879        5.9859766389
 Ca         1.2249148633        2.0607895554        5.9506022181
 Ca        -0.0000131295        5.4409768257        0.8714989739
 Ca         4.7120034256        2.7200959849        4.1975872135
 Ca         4.7120190294        2.7200024087        7.6077794532
 Ca        -0.0000271618        5.4409633748        4.2729922099
  O        -0.0000223675        0.0000848271        9.1061091789
  H        -0.0000233819        0.0000343151        8.2091991038
  O        -0.0000041252       -0.0009853109        5.3542107322
  H        -0.0000556915        0.0005739277        4.4317082697
  O        -0.0001890350        0.0007072173        6.5501755097
  H         0.0000354167       -0.0001838625        7.5120994307
  O         0.0000200791       -0.0000368926        2.7854540605
  H         0.0000066749        0.0000195483        3.6861148891
  O        11.4050555027        2.0820103919        1.2603800974
  O        16.0544518851        0.6748750282        1.2603323252
  O        14.9484724995        5.4051200359        1.2603148373
  O        12.1320530158        6.0746291228        4.6804408008
  O         7.5215855015        7.4691691438        4.6804395305
  O         8.6184564348        2.7792984167        4.6803093505
  O        12.1526171083        6.0797227528        7.1903827426
  O         7.5069291142        7.4844255852        7.1904034734
  O         8.6126271629        2.7589460885        7.1905097291
  O        11.4307054771        2.0914202325        3.7770764281
  O        16.0335109396        0.6923863058        3.7771062885
  O        14.9438066069        5.3781605930        3.7771328725
  O        10.1921963480        3.9766666511        2.4784862270
  O        12.7639540483        3.8335901582        2.5293376042
  P        11.4878284973        2.9891065613        2.4854286121
 Ca         7.0783577650        8.1297437413        2.5232122196
  O        -3.8277280898       31.3227188066        2.4785386622
  O        13.8581398585        0.9755643782        2.5293307256
  P        15.2276454226        0.2927432541        2.4854135532
 Ca         8.2682186194        2.0646916364        2.5232463636
  O        -1.6524412326        5.5083676823        2.4785087740
  O        15.7858622665        3.3525960463        2.5293324607
  P        15.6926127709        4.8800741154        2.4854472672
 Ca        12.9253746064        6.1283943998        2.5231978884
  O        13.3671145741        4.1850141103        5.9804628831
  O        10.7942544853        4.3252118502        5.9299913138
  P        12.0734208201        5.1703830141        5.9859722195
 Ca        16.4510260416        0.0299722531        5.9506610943
  O         8.5396189284        9.4841583919        5.9804610166
  O         9.7053602293        7.1858076239        5.9300005407
  P         8.3337521019        7.8707450453        5.9859322516
 Ca        15.3083099748        6.0703000169        5.9505318097
  O         6.3648924290        2.6538397965        5.9804457865
  O         7.7723793211        4.8124924565        5.9299952768
  P         7.8649087179        3.2820266274        5.9859645087
 Ca        10.6488940794        2.0607780987        5.9505913763
 Ca         9.4239793249        5.4409684755        0.8715812302
 Ca        14.1360223094        2.7200935144        4.1975852789
 Ca        14.1360338743        2.7199998549        7.6077783687
 Ca         9.4239675230        5.4409536940        4.2730126235
  O         9.4239724255        0.0000489342        9.1060974930
  H         9.4239892705        0.0000056301        8.2091941480
  O         9.4242296090        0.0002431167        5.3542069583
  H         9.4238276821       -0.0000966209        4.4317009820
  O         9.4236614270       -0.0002230531        6.5501815216
  H         9.4240736644        0.0001084424        7.5121209050
  O         9.4240200870       -0.0000075507        2.7854480817
  H         9.4240067541       -0.0000075899        3.6861111380
  O        -2.7309551244       10.2431075755        1.2603644335
  O         1.9184609144        8.8359528698        1.2603355021
  O         0.8124754021       13.5661628593        1.2603139185
  O        -2.0039927045       14.2357214367        4.6803857727
  O        -6.6144715860       15.6308817633        4.6803240966
  O        -5.5175490453       10.9403779101        4.6803209398
  O        -1.9834467117       14.2408708053        7.1904397472
  O        -6.6291506632       15.6461031112        7.1905027929
  O        -5.5233824313       10.9199840030        7.1905036202
  O        -2.7052661887       10.2525265598        3.7770703560
  O         1.8975104427        8.8534566942        3.7771016923
  O         0.8077990962       13.5392485063        3.7771399522
  O        -3.9438185846       12.1376822771        2.4784445507
  O        -1.3720578341       11.9946586308        2.5293287911
  P        -2.6481667350       11.1501126355        2.4854309868
 Ca        -7.0576459915       16.2917820913        2.5232509534
  O         0.8842915685        6.8381189859        2.4785180919
  O        -0.2778143436        9.1365686029        2.5293513717
  P         1.0916758902        8.4537911224        2.4854380984
 Ca        -5.8677447392       10.2264376929        2.5232662008
  O         3.0596185139       13.6693431384        2.4784643105
  O         1.6497905814       11.5136054994        2.5293155957
  P         1.5566147865       13.0411281245        2.4854306216
 Ca        -1.2105781450       14.2894753118        2.5232456945
  O        -0.7686403164       12.3466898808        5.9804368359
  O        -3.3417206695       12.4862437319        5.9299650809
  P        -2.0626981670       13.3316191249        5.9859352694
 Ca         2.3148951021        8.1918069535        5.9506429843
  O        -5.5963684451       17.6453945486        5.9804380937
  O        -4.4305247864       15.3474662539        5.9299649959
  P        -5.8022761782       16.0322634220        5.9859463283
 Ca         1.1723028399       14.2322835364        5.9506202047
  O        11.0769176425       10.8148518826        5.9804452390
  O        -6.3636856552       12.9735311245        5.9299702739
  P        -6.2711178443       11.4430814272        5.9859759330
 Ca        -3.4871320517       10.2217269344        5.9505963351
 Ca        -4.7120029665       13.6020104367        0.8716626843
 Ca         0.0000391239       10.8819542859        4.1975984102
 Ca         0.0000629660       10.8820079143        7.6079222607
 Ca        -4.7120097150       13.6020349303        4.2730444387
  O        14.1359933825        8.1612302662        9.1061214882
  H        14.1359685465        8.1609913859        8.2092066171
  O        14.1375502560        8.1608646530        5.3542161580
  H        14.1351380302        8.1611437156        4.4317137239
  O        14.1349296584        8.1617369326        6.5501509319
  H        14.1363126287        8.1607667728        7.5120386751
  O        14.1360340257        8.1613025325        2.7854534066
  H        14.1359771965        8.1610007047        3.6861101382
  O         6.6930630264       10.2430982637        1.2603698185
  O        11.3424547412        8.8359474500        1.2603254481
  O        10.2364937075       13.5661619203        1.2602975784
  O         7.4200321633       14.2357141285        4.6803894755
  O         2.8095031957       15.6308851950        4.6803348433
  O         3.9064584985       10.9403760496        4.6803207243
  O         7.4405763852       14.2408601608        7.1904393752
  O         2.7948352306       15.6461055974        7.1905070785
  O         3.9006315044       10.9199799843        7.1904885653
  O         6.7187463265       10.2525194603        3.7770701241
  O        11.3215102800        8.8534519620        3.7770971601
  O        10.2318008365       13.5392376825        3.7771304684
  O         5.4801988296       12.1376722170        2.4784720547
  O         8.0519487284       11.9946483518        2.5293273006
  P         6.7758308251       11.1501238762        2.4854321410
 Ca         2.3663480042       16.2917870206        2.5232161673
  O        10.3082904422        6.8381085217        2.4784857268
  O         9.1461894948        9.1365643112        2.5293422709
  P        10.5156784828        8.4538013423        2.4854398194
 Ca         3.5562340712       10.2264440514        2.5232456112
  O        -6.3643778350       13.6693475193        2.4784339144
  O        11.0737956743       11.5136028693        2.5293159693
  P        10.9806025930       13.0411371061        2.4854330117
 Ca         8.2133784165       14.2894694977        2.5232368777
  O         8.6553757198       12.3466803742        5.9804440683
  O         6.0822852181       12.4862418270        5.9299642639
  P         7.3613076613       13.3316334766        5.9859398600
 Ca        11.7388624508        8.1917981058        5.9506290922
  O         3.8276431813       17.6453957920        5.9804452159
  O         4.9934670389       15.3474654981        5.9299595852
  P         3.6217422621       16.0322593944        5.9859523552
 Ca        10.5963047315       14.2323552112        5.9505914938
  O         1.6529151162       10.8148567975        5.9804385960
  O         3.0603154019       12.9735360234        5.9299565019
  P         3.1528841720       11.4430722974        5.9859803263
 Ca         5.9368523632       10.2217167869        5.9506119014
 Ca         4.7119585312       13.6020073119        0.8715959723
 Ca         9.4240145705       10.8819593215        4.1975977607
 Ca         9.4240226834       10.8819963389        7.6078296213
 Ca         4.7119706419       13.6020314269        4.2730317841
  O         4.7120151133        8.1612445830        9.1061139355
  H         4.7119674325        8.1610015409        8.2092020953
  O         4.7132562406        8.1608340083        5.3542169576
  H         4.7112800486        8.1611737927        4.4317104161
  O         4.7110869110        8.1617639986        6.5501613958
  H         4.7122573650        8.1607632168        7.5120440633
  O         4.7120413634        8.1612932572        2.7854539799
  H         4.7119777827        8.1610072407        3.6861103032
  O        -7.4429395933       18.4049976782        1.2603928348
  O        -2.7936149653       16.9977440564        1.2603525199
  O        -3.8995984234       21.7274048055        1.2601791096
  O        -6.7159141841       22.3968330460        4.6803317809
  O       -11.3264186476       23.7919803723        4.6803685744
  O       -10.2294884148       19.1021696824        4.6802487007
  O        -6.6953704689       22.4019789229        7.1904947957
  O       -11.3410909318       23.8072393169        7.1904510348
  O       -10.2353169678       19.0818177877        7.1905511692
  O        -7.4173125204       18.4143952749        3.7770719446
  O        -2.8145474706       17.0152691228        3.7770615074
  O        -3.9042923754       21.7005086459        3.7772456847
  O        -8.6557850447       20.2996611732        2.4784311091
  O        -6.0840610632       20.1564903881        2.5293038529
  P        -7.3602186283       19.3121253796        2.4854198903
 Ca       -11.7696543395       24.4528818704        2.5232498224
  O        -3.8276470292       14.9996968226        2.4784099808
  O        -4.9898096707       17.2984550077        2.5293279076
  P        -3.6203655038       16.6154037775        2.4854240795
 Ca       -10.5798173475       18.3877055538        2.5232692387
  O        -1.6524673068       21.8313789329        2.4784729286
  O        -3.0620093710       19.6753928622        2.5293253332
  P        -3.1552812577       21.2028276156        2.4854334417
 Ca        -5.9225801241       22.4506156020        2.5232638220
  O        -5.4806727882       20.5076153682        5.9804303895
  O        -8.0539832069       20.6478963015        5.9299692311
  P        -6.7745845254       21.4929209030        5.9859368981
 Ca        -2.3971210833       16.3529131274        5.9505818465
  O       -10.3084319234       25.8067532873        5.9804636528
  O        -9.1425259433       23.5085878002        5.9299823062
  P       -10.5142282650       24.1936477362        5.9859724021
 Ca        -3.5397311144       22.3933755307        5.9506183748
  O         6.3650695874       18.9759280031        5.9804616035
  O       -11.0758147125       21.1350697289        5.9299779602
  P       -10.9831809364       19.6045069866        5.9859565502
 Ca        -8.1991156063       18.3838615093        5.9506378175
 Ca        -9.4240260394       21.7640166707        0.8716765340
 Ca        -4.7119096810       19.0431106952        4.1976258696
 Ca        -4.7119430910       19.0430451651        7.6078744078
 Ca        -9.4240253320       21.7639840819        4.2730434938
  O        -9.4240079155       16.3229862618        9.1060994209
  H        -9.4239864833       16.3230175404        8.2092089395
  O        -9.4251851238       16.3213887485        5.3542261143
  H        -9.4234119773       16.3238496855        4.4317114376
  O        -9.4233002818       16.3238349599        6.5501868494
  H        -9.4242492807       16.3227694944        7.5120668386
  O        -9.4240076858       16.3228827610        2.7854510710
  H        -9.4239729078       16.3230182450        3.6861133389
  O         1.9810719907       18.4049836176        1.2603981562
  O         6.6303954796       16.9977553833        1.2603632321
  O         5.5244337028       21.7274096804        1.2601520698
  O         2.7081113338       22.3968145747        4.6803300861
  O        -1.9024674954       23.7919887375        4.6803814529
  O        -0.8055187985       19.1021710872        4.6802504245
  O         2.7286570139       22.4019640925        7.1905004337
  O        -1.9171192213       23.8072473727        7.1904396504
  O        -0.8113257368       19.0817930663        7.1905654681
  O         2.0067055752       18.4143918148        3.7770741311
  O         6.6094681947       17.0152746324        3.7770550859
  O         5.5197254339       21.7005015899        3.7772364892
  O         0.7682290585       20.2996436905        2.4784764909
  O         3.3399525095       20.1564805592        2.5293176292
  P         2.0637724315       19.3121401456        2.4854251585
 Ca        -2.3456218026       24.4528601123        2.5232110368
  O         5.5963688034       14.9997105693        2.4784289753
  O         4.4341931838       17.2984655376        2.5293227991
  P         5.8036405546       16.6153972201        2.4854196453
 Ca        -1.1557872483       18.3877505881        2.5232369357
  O       -11.0764342984       21.8313857981        2.4784228571
  O         6.3620130431       19.6754027780        2.5293236906
  P         6.2686950045       21.2028253593        2.4854461342
 Ca         3.5013498304       22.4506147834        2.5232416086
  O         3.9433518719       20.5076043959        5.9804377334
  O         1.3700147221       20.6478952088        5.9299661698
  P         2.6494112704       21.4929286928        5.9859308830
 Ca         7.0269304412       16.3529493951        5.9506214766
  O        -0.8844433787       25.8067599084        5.9804645717
  O         0.2814661074       23.5085762460        5.9299667917
  P        -1.0902204486       24.1936539191        5.9859937823
 Ca         5.8842672884       22.3934269726        5.9505796612
  O        -3.0589434682       18.9759183430        5.9804620930
  O        -1.6518237295       21.1350625870        5.9299640457
  P        -1.5591797419       19.6045096533        5.9859297866
 Ca         1.2248510068       18.3838167966        5.9506287755
 Ca        -0.0000281245       21.7640168395        0.8715453543
 Ca         4.7120526003       19.0430988991        4.1976230918
 Ca         4.7120133161       19.0430118145        7.6078304339
 Ca        -0.0000117546       21.7639836229        4.2730182555
  O         0.0000333601       16.3229693097        9.1061189268
  H         0.0000304588       16.3230045667        8.2092550795
  O        -0.0016306502       16.3229299722        5.3542420621
  H         0.0008521815       16.3230473667        4.4317220493
  O         0.0011357989       16.3228432028        6.5502013562
  H        -0.0003813689       16.3230760714        7.5120286200
  O        -0.0000276700       16.3229061108        2.7854565087
  H         0.0000414120       16.3229953296        3.6861144072
  O       -12.1549234805       26.5660266014        1.2604129234
  O        -7.5055647670       25.1588733871        1.2603058515
  O        -8.6115253614       29.8891339581        1.2603231024
  O       -11.4279952368       30.5586806485        4.6803899040
  O       -16.0384598719       31.9538451280        4.6803510582
  O       -14.9415341017       27.2633060456        4.6803189946
  O       -11.4074514178       30.5637838572        7.1904396274
  O       -16.0531354464       31.9690805738        7.1905000083
  O       -14.9473721597       27.2429693934        7.1904917417
  O       -12.1292749890       26.5754504296        3.7770720844
  O        -7.5265039589       25.1763907586        3.7770987677
  O        -8.6162001379       29.8622024038        3.7771442246
  O       -13.3677750906       28.4606359326        2.4785417302
  O       -10.7960376338       28.3175983201        2.5293298540
  P       -12.0722047385       27.4731619125        2.4854215505
 Ca       -16.4816286662       32.6139138605        2.5231930847
  O        -8.5397253804       23.1610378032        2.4784236278
  O        -9.7018238913       25.4595327101        2.5293448868
  P        -8.3323264981       24.7768108902        2.4854348534
 Ca       -15.2917877392       26.5487261775        2.5232142542
  O        -6.3644348852       29.9923493575        2.4785465584
  O        -7.7741787901       27.8365719467        2.5293258526
  P        -7.8673605290       29.3640879044        2.4854282584
 Ca       -10.6346258336       30.6125111683        2.5232066135
  O       -10.1926277751       28.6696488145        5.9804503576
  O       -12.7657232934       28.8091964578        5.9299854828
  P       -11.4867092367       29.6546086132        5.9859790281
 Ca        -7.1090933188       24.5148002674        5.9505800220
  O         3.8276510161        1.3226788446        5.9804562605
  O       -13.8545448217       31.6704665890        5.9299621239
  P       -15.2262768953       32.3552361994        5.9859609680
 Ca        -8.2517065663       30.5553794831        5.9506075276
  O         1.6529103983       27.1378329178        5.9804441239
  O       -15.7876697032       29.2965308311        5.9299934092
  P       -15.6950930686       27.7660862544        5.9859832786
 Ca       -12.9110761125       26.5448371246        5.9506158196
 Ca       -14.1360243152       29.9250320689        0.8714676590
 Ca        -9.4239960076       27.2050299315        4.1976080232
 Ca        -9.4240064129       27.2050316257        7.6077750957
 Ca       -14.1360180695       29.9250551111        4.2729849126
  O         4.7119829637       24.4841920114        9.1060974907
  H         4.7119925682       24.4840180277        8.2092014193
  O         4.7118258464       24.4825596648        5.3542195568
  H         4.7120345704       24.4848123258        4.4317080453
  O         4.7119057983       24.4852495077        6.5501883554
  H         4.7119970285       24.4836357435        7.5120920119
  O         4.7120171383       24.4840559785        2.7854525330
  H         4.7120054546       24.4840162797        3.6861152668
  O        -2.7309323955       26.5660320163        1.2604093712
  O         1.9184468884       25.1588927617        1.2603197432
  O         0.8124786006       29.8891409475        1.2603291800
  O        -2.0039941013       30.5586679990        4.6803935165
  O        -6.6144521336       31.9538508556        4.6803450566
  O        -5.5175689743       27.2633102157        4.6803196808
  O        -1.9834405409       30.5637881749        7.1904457262
  O        -6.6291307355       31.9690846927        7.1905031162
  O        -5.5233962140       27.2429478961        7.1905079037
  O        -2.7052795766       26.5754496363        3.7770792771
  O         1.8975142145       25.1763950633        3.7771022765
  O         0.8078043561       29.8621975018        3.7771388183
  O        -3.9437732459       28.4606310491        2.4785480340
  O        -1.3720379480       28.3176046712        2.5293353348
  P        -2.6482121455       27.4731626865        2.4854165855
 Ca        -7.0576191892       32.6138961762        2.5231948620
  O         0.8842801192       23.1610576173        2.4784640037
  O        -0.2778257592       25.4595434266        2.5293377312
  P         1.0916588634       24.7767986943        2.4854301282
 Ca        -5.8677536405       26.5487645262        2.5232039992
  O       -15.7884165383       29.9923576770        2.4785450049
  O         1.6498258127       27.8365802199        2.5293360331
  P         1.5566207985       29.3640884835        2.4854339540
 Ca        -1.2106349950       30.6124969838        2.5231915173
  O        -0.7686213394       28.6696631764        5.9804544764
  O        -3.3417222953       28.8092029727        5.9299877327
  P        -2.0627104432       29.6546104221        5.9859582102
 Ca         2.3149954458       24.5148365715        5.9506760390
  O        13.2516502476        1.3226877772        5.9804545717
  O        -4.4305416580       31.6704648968        5.9299605927
  P        -5.8022707547       32.3552373612        5.9859593862
 Ca         1.1723361312       30.5553251761        5.9505469748
  O        -7.7710931204       27.1378041406        5.9804556666
  O        -6.3636644460       29.2965237732        5.9299831268
  P        -6.2710831082       27.7660908728        5.9859515819
 Ca        -3.4870960083       26.5448033466        5.9505964432
 Ca        -4.7120109757       29.9250305174        0.8714585278
 Ca         0.0000122507       27.2050034657        4.1976035195
 Ca         0.0000227015       27.2049614971        7.6078032188
 Ca        -4.7120103743       29.9250626831        4.2729793745
  O        -4.7119735226       24.4841587857        9.1061116337
  H        -4.7119716453       24.4839873397        8.2092011843
  O        -4.7132648834       24.4842026252        5.3542223853
  H        -4.7113426978       24.4839332018        4.4317100991
  O        -4.7111711704       24.4841458672        6.5501707901
  H        -4.7122791572       24.4839790145        7.5120585385
  O        -4.7120248636       24.4840899680        2.7854576718
  H        -4.7119631525       24.4839844920        3.6861163765
  O         0.4132678228       15.1674013104       16.0677625197
  C         0.1008689569       16.3061708049       16.0765554033
  O        -0.2124833756       17.4440025280       16.0868259943
     387
 i =        6, E =     -6917.4369573715
  O         1.9587976520        2.0664813042        1.2526774700
  O         6.6550474548        0.6632673773        1.2526165210
  O         5.5221939351        5.4322329679        1.2525432140
  O         2.7119817057        6.0701170723        4.6778595954
  O        -1.9004389199        7.4748159923        4.6778384147
  O        -0.8113145188        2.7781316438        4.6777379231
  O         2.7469400161        6.0959564755        7.1960763462
  O        -1.9403569615        7.4922494205        7.1961595317
  O        -0.8064302942        2.7350388171        7.1962533387
  O         2.0028171865        2.0944427494        3.7764021798
  O         6.6088201647        0.6875363253        3.7764041806
  O         5.5243550155        5.3798940892        3.7764520127
  O         0.7620755827        3.9737290999        2.4494877766
  O         3.3350630135        3.8547114011        2.5401376257
  P         2.0598505930        2.9839110207        2.4788976527
 Ca        -2.3392979675        8.1440093407        2.5326657901
  O       -13.2461011125       31.3188439715        2.4495180875
  O         4.4182434150        0.9608332263        2.5401204513
  P         5.8100929941        0.2919198558        2.4788889003
 Ca        -1.1714351257        2.0631503612        2.5326581538
  O         7.7721081831        5.5151116233        2.4494485362
  O         6.3825889853        3.3462333694        2.5401216441
  P         6.2660957929        4.8860329740        2.4789302951
 Ca         3.5106244022        6.1156135444        2.5326176197
  O         3.9493289632        4.1868388958        6.0023716455
  O         1.3754431830        4.3035877828        5.9144621145
  P         2.6532357106        5.1760352210        5.9891356508
 Ca         7.0092248906        0.0139611406        5.9519069438
  O        -0.8890261836        9.4885072817        6.0023825578
  O         0.2975747377        7.2011268762        5.9144937236
  P        -1.0970722575        7.8711509953        5.9890176758
 Ca         5.9072175448        6.0628690362        5.9517221869
  O        15.7872774194        2.6475639263        6.0023535282
  O        -1.6728797372        4.8187528522        5.9144743292
  P        -1.5561112360        3.2758887007        5.9891382543
 Ca         1.2198514402        2.0844048059        5.9518195918
 Ca        -0.0000285969        5.4409515977        0.9291563725
 Ca         4.7120215056        2.7201981338        4.1754552766
 Ca         4.7120368571        2.7200650419        7.5654659172
 Ca        -0.0000458474        5.4409526722        4.3025592557
  O        -0.0000109146        0.0000927843        9.2298317923
  H        -0.0000513200        0.0001110135        8.3159796584
  O         0.0001356437       -0.0025475503        5.3178011259
  H        -0.0001177704        0.0015620757        4.3482395671
  O        -0.0003166044        0.0019118603        6.5730086115
  H         0.0001377047       -0.0006353793        7.6068059180
  O         0.0000220134       -0.0000409467        2.6665935843
  H         0.0000299625       -0.0001075859        3.5812729275
  O        11.3827910295        2.0664890714        1.2526578161
  O        16.0790415685        0.6632641796        1.2526103774
  O        14.9461773290        5.4322356071        1.2525591359
  O        12.1359817073        6.0701377794        4.6778690047
  O         7.5235658550        7.4748120774        4.6778357452
  O         8.6126618395        2.7781959621        4.6777325486
  O        12.1709330666        6.0959681822        7.1960794935
  O         7.4836794632        7.4922372469        7.1961609209
  O         8.6175875881        2.7350168502        7.1962623352
  O        11.4268215084        2.0944524053        3.7763940971
  O        16.0328132499        0.6875379991        3.7763965569
  O        14.9483436275        5.3798894332        3.7764483728
  O        10.1860770006        3.9737367281        2.4494580140
  O        12.7590604874        3.8547233554        2.5401365740
  P        11.4838365911        2.9839093875        2.4788990282
 Ca         7.0846667276        8.1440358176        2.5326756903
  O        -3.8221084730       31.3188405945        2.4495127550
  O        13.8422442176        0.9608324832        2.5401192961
  P        15.2340922664        0.2919327247        2.4788994066
 Ca         8.2525562888        2.0631363339        2.5326899840
  O        -1.6519033130        5.5151141952        2.4494720167
  O        15.8065776262        3.3462309732        2.5401255656
  P        15.6900872143        4.8860328595        2.4789363135
 Ca        12.9346657822        6.1155989330        2.5326306915
  O        13.3733229998        4.1868486865        6.0023729305
  O        10.7994462497        4.3036015559        5.9144686149
  P        12.0772264326        5.1760331789        5.9891348505
 Ca        16.4332314044        0.0139371840        5.9518884732
  O         8.5349894172        9.4884904376        6.0023775425
  O         9.7215918633        7.2011316501        5.9144948111
  P         8.3269232593        7.8711588922        5.9890327039
 Ca        15.3312203508        6.0628711780        5.9517170976
  O         6.3632829953        2.6475624577        6.0023569322
  O         7.7511236064        4.8187495588        5.9144783551
  P         7.8678871853        3.2758950440        5.9890800327
 Ca        10.6438205155        2.0843807651        5.9517789807
 Ca         9.4239587129        5.4409409684        0.9292477771
 Ca        14.1360397466        2.7201953933        4.1754531543
 Ca        14.1360579405        2.7200583838        7.5654609725
 Ca         9.4239437190        5.4409379954        4.3025749482
  O         9.4239825963        0.0000751537        9.2298327057
  H         9.4239602599       -0.0000343860        8.3159848156
  O         9.4247262939        0.0006430949        5.3178304655
  H         9.4235488158       -0.0002850123        4.3482143241
  O         9.4232595061       -0.0005665315        6.5729926779
  H         9.4242659495        0.0003085821        7.6068155264
  O         9.4240249465       -0.0000279332        2.6665923853
  H         9.4240592718        0.0000144526        3.5812655100
  O        -2.7532544800       10.2275901303        1.2526134963
  O         1.9430699692        8.8243905594        1.2526186278
  O         0.8102059102       13.5932431097        1.2525391304
  O        -2.0001375844       14.2312246875        4.6778217330
  O        -6.6125464426       15.6364228818        4.6777938484
  O        -5.5233135344       10.9393159398        4.6777519060
  O        -1.9651816331       14.2571974497        7.1961916512
  O        -6.6523240564       15.6537781865        7.1962257506
  O        -5.5184053239       10.8960812127        7.1962526633
  O        -2.7091441734       10.2556272968        3.7763856603
  O         1.8968136796        8.8486898781        3.7763905617
  O         0.8123561837       13.5410742304        3.7764700933
  O        -3.9499118359       12.1347564918        2.4494172450
  O        -1.3769538571       12.0158021547        2.5401118331
  P        -2.6521369743       11.1449269968        2.4789127939
 Ca        -7.0513290309       16.3060827238        2.5326743587
  O         0.8899051046        6.8342828653        2.4495040349
  O        -0.2937327084        9.1218637721        2.5401542320
  P         1.0981413949        8.4530052691        2.4789191544
 Ca        -5.8833908803       10.2246880345        2.5327035135
  O         3.0601637869       13.6761174978        2.4494424480
  O         1.6704613163       11.5073096008        2.5401055339
  P         1.5541298542       13.0470889081        2.4789207009
 Ca        -1.2012665326       14.2767198123        2.5327094226
  O        -0.7624518796       12.3484767387        6.0023706712
  O        -3.3364783880       12.4646388821        5.9144601065
  P        -2.0588403793       13.3372434558        5.9890119562
 Ca         2.2970552480        8.1756531636        5.9519071795
  O        -5.6010135777       17.6498698872        6.0023540624
  O        -4.4143572739       15.3626858906        5.9144341417
  P        -5.8090871196       16.0327414607        5.9890907899
 Ca         1.1952487339       14.2247163933        5.9518075841
  O        11.0753365048       10.8086355003        6.0023510887
  O        -6.3849800163       12.9798806596        5.9144365996
  P        -6.2681527777       11.4369417290        5.9891384570
 Ca        -3.4921885952       10.2452363970        5.9518056089
 Ca        -4.7120230174       13.6020012027        0.9293616375
 Ca         0.0000524698       10.8818986689        4.1754862456
 Ca         0.0000873663       10.8819502505        7.5655982787
 Ca        -4.7120302289       13.6020401856        4.3026066658
  O        14.1360299127        8.1614313904        9.2298344387
  H        14.1358323645        8.1610029122        8.3159573741
  O        14.1399604029        8.1603987437        5.3176919365
  H        14.1336328036        8.1613875993        4.3483110522
  O        14.1330717678        8.1626056640        6.5730485682
  H        14.1370360412        8.1603099197        7.6067644445
  O        14.1360229576        8.1614914878        2.6665854955
  H        14.1361818857        8.1609262647        3.5812780546
  O         6.6707624240       10.2275827982        1.2526249044
  O        11.3670678183        8.8243870426        1.2526041966
  O        10.2342305944       13.5932344957        1.2525211475
  O         7.4238497631       14.2311922352        4.6778098472
  O         2.8113801184       15.6364274171        4.6778129880
  O         3.9006828713       10.9393227346        4.6777498669
  O         7.4588518707       14.2571960112        7.1961767166
  O         2.7716577406       15.6537869166        7.1962493016
  O         3.9055994569       10.8960778584        7.1962299904
  O         6.7148658111       10.2556149096        3.7763878581
  O        11.3208234230        8.8486836307        3.7763955086
  O        10.2363702876       13.5410458803        3.7764449820
  O         5.4740901776       12.1347549223        2.4494407873
  O         8.0470509323       12.0157845606        2.5401088908
  P         6.7718797115       11.1449266607        2.4789140956
 Ca         2.3726825865       16.3060971167        2.5326313061
  O        10.3139098280        6.8342817857        2.4494776159
  O         9.1302722820        9.1218576870        2.5401472880
  P        10.5221323138        8.4530015779        2.4789054886
 Ca         3.5405970658       10.2246865319        2.5326821727
  O        -6.3638138676       13.6761221501        2.4494112850
  O        11.0944779414       11.5072980553        2.5401026621
  P        10.9780975074       13.0470982909        2.4789266520
 Ca         8.2226974938       14.2767215620        2.5327155222
  O         8.6615654120       12.3484498401        6.0023710430
  O         6.0875171762       12.4646258887        5.9144559290
  P         7.3651803851       13.3372728745        5.9890072411
 Ca        11.7210103911        8.1756461079        5.9518853774
  O         3.8229830909       17.6498667663        6.0023666227
  O         5.0096084408       15.3626883525        5.9144225930
  P         3.6149632653       16.0327320315        5.9891020750
 Ca        10.6192100337       14.2248331027        5.9517706545
  O         1.6513163651       10.8086488122        6.0023478085
  O         3.0390037692       12.9798941870        5.9144245576
  P         3.1558779188       11.4369194864        5.9891397296
 Ca         5.9317967486       10.2452368009        5.9518339276
 Ca         4.7119506140       13.6019933582        0.9292791822
 Ca         9.4240217620       10.8819193144        4.1754839639
 Ca         9.4240205853       10.8819668632        7.5654881281
 Ca         4.7119753793       13.6020283162        4.3025973458
  O         4.7120532464        8.1614422767        9.2298260334
  H         4.7118438378        8.1610204292        8.3159419249
  O         4.7152497291        8.1603037965        5.3176842743
  H         4.7100402252        8.1614554708        4.3483138389
  O         4.7095524621        8.1626752592        6.5730328510
  H         4.7128686318        8.1602881927        7.6067996155
  O         4.7120251865        8.1614840464        2.6665821011
  H         4.7121458064        8.1609301163        3.5812790521
  O        -7.4651921926       18.3894937245        1.2526670024
  O        -2.7690411711       16.9860906326        1.2526184370
  O        -3.9018259885       21.7545352371        1.2524247731
  O        -6.7120206785       22.3923760050        4.6777549742
  O       -11.3244635113       23.7976028805        4.6778285018
  O       -10.2352506625       19.1009446577        4.6776818309
  O        -6.6770910799       22.4183047788        7.1962362088
  O       -11.3642877794       23.8149985526        7.1961682806
  O       -10.2303549787       19.0578431415        7.1963294832
  O        -7.4212162837       18.4174148681        3.7763974877
  O        -2.8152527417       17.0103552379        3.7763594950
  O        -3.8997214289       21.7024382349        3.7765187545
  O        -8.6619171630       20.2967424562        2.4494087900
  O        -6.0889487407       20.1775635718        2.5401028816
  P        -7.3642341002       19.3069190367        2.4788806806
 Ca       -11.7633316831       24.4672179024        2.5326988204
  O        -3.8220287566       14.9959972259        2.4494033219
  O        -5.0056794020       17.2836771291        2.5401167605
  P        -3.6139207058       16.6146140157        2.4789026464
 Ca       -10.5954989113       18.3860996041        2.5327006705
  O        -1.6519657483       21.8380990580        2.4494410801
  O        -3.0412171529       19.6689199099        2.5401255203
  P        -3.1578521267       21.2087613660        2.4789068372
 Ca        -5.9132642828       22.4379855001        2.5327161952
  O        -5.4744662957       20.5093013230        6.0023594046
  O        -8.0487332449       20.6262392430        5.9144658210
  P        -6.7708239912       21.4986230442        5.9890447467
 Ca        -2.4149409187       16.3368387902        5.9517083520
  O       -10.3130783860       25.8111192725        6.0023676600
  O        -9.1263772107       23.5239058391        5.9144667053
  P       -10.5210192489       24.1940727001        5.9890941433
 Ca        -3.5168052154       22.3859336765        5.9518578214
  O         6.3634885939       18.9697329220        6.0023825409
  O       -11.0971825692       21.1413603227        5.9144513666
  P       -10.9801631723       19.5984911917        5.9890795400
 Ca        -8.2041842434       18.4074522471        5.9518707953
 Ca        -9.4240457662       21.7640225285        0.9293541238
 Ca        -4.7118609347       19.0431824734        4.1754873242
 Ca        -4.7119383927       19.0431121653        7.5655205561
 Ca        -9.4240599034       21.7639733151        4.3026261006
  O        -9.4240213056       16.3229446436        9.2298592686
  H        -9.4238879234       16.3231187417        8.3159731869
  O        -9.4269217180       16.3190238821        5.3178069662
  H        -9.4223414271       16.3253516194        4.3482809922
  O        -9.4219450427       16.3254988964        6.5730367680
  H        -9.4247778305       16.3222013928        7.6067299896
  O        -9.4239924916       16.3228359506        2.6665892647
  H        -9.4241001606       16.3228254309        3.5812795222
  O         1.9588140345       18.3894799318        1.2526708765
  O         6.6549624199       16.9861033595        1.2526374476
  O         5.5222021339       21.7545385843        1.2523874961
  O         2.7119794221       22.3923453252        4.6777605027
  O        -1.9005676886       23.7976143462        4.6778367077
  O        -0.8112939403       19.1010056061        4.6776863590
  O         2.7469529453       22.4182986812        7.1962589124
  O        -1.9402739012       23.8150015466        7.1961448500
  O        -0.8063445027       19.0577587936        7.1963626539
  O         2.0028021044       18.4174093480        3.7764000738
  O         6.6087600859       17.0103669955        3.7763568591
  O         5.5242945475       21.7024214535        3.7765045752
  O         0.7620908842       20.2967284394        2.4494470225
  O         3.3350562304       20.1775474006        2.5401098086
  P         2.0597794794       19.3069271920        2.4788974471
 Ca        -2.3393028431       24.4672015863        2.5326452136
  O         5.6019771186       14.9960083580        2.4494198592
  O         4.4183142899       17.2836876743        2.5401138313
  P         5.8101053569       16.6146113364        2.4788959504
 Ca        -1.1714705870       18.3861535155        2.5326820263
  O       -11.0759479571       21.8381014237        2.4493941267
  O         6.3828055112       19.6689223456        2.5401235978
  P         6.2661533112       21.2087674782        2.4789116523
 Ca         3.5106710527       22.4379865548        2.5326995967
  O         3.9495422936       20.5092928167        6.0023745689
  O         1.3752627272       20.6262289813        5.9144716449
  P         2.6531952485       21.4986160620        5.9890006539
 Ca         7.0091485537       16.3368585561        5.9517940366
  O        -0.8890809098       25.8111196874        6.0023589130
  O         0.2976308013       23.5238918066        5.9144341640
  P        -1.0970395519       24.1940861177        5.9891679036
 Ca         5.9071869682       22.3859977155        5.9517632993
  O        -3.0604995072       18.9697234489        6.0023943849
  O        -1.6731871479       21.1413430161        5.9144544515
  P        -1.5561886576       19.5984932060        5.9889918759
 Ca         1.2197823017       18.4074236763        5.9518055324
 Ca        -0.0000537924       21.7640290094        0.9292019027
 Ca         4.7121108015       19.0431718045        4.1754801640
 Ca         4.7120569965       19.0430633164        7.5654380916
 Ca        -0.0000449204       21.7639724843        4.3025991901
  O         0.0000192598       16.3229455348        9.2299819088
  H         0.0001786483       16.3229911716        8.3160389885
  O        -0.0041469709       16.3228907515        5.3179315055
  H         0.0023705540       16.3231087926        4.3482818862
  O         0.0031188169       16.3226975884        6.5730784157
  H        -0.0012058847       16.3231971831        7.6065908956
  O        -0.0000054412       16.3228448357        2.6665984594
  H        -0.0001413657       16.3229880444        3.5812957040
  O       -12.1772150306       26.5505007809        1.2526913301
  O        -7.4809651091       25.1472962039        1.2525717888
  O        -8.6137892954       29.9162147654        1.2525699150
  O       -11.4241069074       30.5542036637        4.6778189529
  O       -16.0364942859       31.9593366989        4.6778092320
  O       -14.9472904065       27.2621779631        4.6777445689
  O       -11.3892086793       30.5800579774        7.1961785110
  O       -16.0763649265       31.9767435263        7.1962211336
  O       -14.9424062343       27.2190614892        7.1962395248
  O       -12.1331635853       26.5785074271        3.7764096996
  O        -7.5272125417       25.1715811511        3.7763803464
  O        -8.6116477760       29.8639806037        3.7764649090
  O       -13.3738826912       28.4577078983        2.4495163633
  O       -10.8009352656       28.3387245938        2.5401229651
  P       -12.0761732756       27.4679744302        2.4788952817
 Ca       -16.4753051201       32.6283323381        2.5326133979
  O        -8.5341006502       23.1572094699        2.4494146030
  O        -9.7177437772       25.4448265085        2.5401475915
  P        -8.3258795669       24.7759793123        2.4789106071
 Ca       -15.3074606568       26.5471577458        2.5326356980
  O        -6.3638706618       29.9991195445        2.4495137837
  O        -7.7534768550       27.8302328418        2.5401167061
  P        -7.8698945408       29.3700382662        2.4789260144
 Ca       -10.6253269079       30.5997682735        2.5326380863
  O       -10.1864564166       28.6713927364        6.0023617469
  O       -12.7604906835       28.7875705523        5.9144651282
  P       -11.4828519317       29.6602432939        5.9891156303
 Ca        -7.1268975060       24.4986585871        5.9517803226
  O         3.8230128190        1.3271368498        6.0023568412
  O       -13.8383526593       31.6856820408        5.9144278632
  P       -15.2330667724       32.3557192932        5.9890851786
 Ca        -8.2287559031       30.5478703863        5.9518215789
  O         1.6513114400       27.1315790182        6.0023484907
  O       -15.8089572917       29.3028421382        5.9144565832
  P       -15.6921195619       27.7599818981        5.9891431926
 Ca       -12.9161401074       26.5684243305        5.9518496296
 Ca       -14.1360371160       29.9250488736        0.9291235645
 Ca        -9.4239728727       27.2050189729        4.1754854289
 Ca        -9.4239879270       27.2050422524        7.5654475414
 Ca       -14.1360370468       29.9250913455        4.3025438368
  O         4.7119875255       24.4842932811        9.2298447161
  H         4.7119919599       24.4841142951        8.3159674091
  O         4.7117134660       24.4802560354        5.3178128145
  H         4.7121358564       24.4862431108        4.3482564304
  O         4.7119644697       24.4873149788        6.5730241064
  H         4.7120231955       24.4828243838        7.6067732987
  O         4.7120151192       24.4841592408        2.6665921680
  H         4.7120035799       24.4838076272        3.5812756972
  O        -2.7532268183       26.5505070895        1.2526829062
  O         1.9430437304       25.1473096440        1.2525980609
  O         0.8102061388       29.9162235047        1.2525725302
  O        -2.0001428024       30.5541656799        4.6778075595
  O        -6.6124884826       31.9593365889        4.6778029131
  O        -5.5233455424       27.2622657405        4.6777312224
  O        -1.9651746542       30.5800859342        7.1961769861
  O        -6.6523572021       31.9767545285        7.1962200456
  O        -5.5184258578       27.2189931215        7.1962468004
  O        -2.7091610904       26.5785132768        3.7763961941
  O         1.8968183481       25.1715855785        3.7763989802
  O         0.8123577818       29.8639666677        3.7764562087
  O        -3.9498927273       28.4577158007        2.4495110352
  O        -1.3769463438       28.3387252705        2.5401233997
  P        -2.6521585196       27.4679639036        2.4789136521
 Ca        -7.0513004007       32.6283219583        2.5326206682
  O         0.8899015150       23.1572194701        2.4494522394
  O        -0.2937389036       25.4448358198        2.5401438199
  P         1.0981180463       24.7759823316        2.4788994193
 Ca        -5.8834183686       26.5471861294        2.5326536089
  O       -15.7878676833       29.9991192528        2.4495194459
  O         1.6705310911       27.8302253491        2.5401274796
  P         1.5541140775       29.3700567073        2.4789341653
 Ca        -1.2013263961       30.5997564453        2.5326415582
  O        -0.7624446781       28.6714030058        6.0023686386
  O        -3.3364941532       28.7875774440        5.9144735406
  P        -2.0588474260       29.6602457082        5.9890791069
 Ca         2.2971673202       24.4986848833        5.9519049066
  O        13.2470139498        1.3271454234        6.0023571092
  O        -4.4143534684       31.6856822958        5.9144263765
  P        -5.8090595276       32.3557222874        5.9890865196
 Ca         1.1952654158       30.5478245365        5.9517376644
  O        -7.7727000637       27.1315566867        6.0023657365
  O        -6.3849649886       29.3028557076        5.9144611430
  P        -6.2681060746       27.7599575805        5.9890747068
 Ca        -3.4921761724       26.5683824972        5.9518190373
 Ca        -4.7120187467       29.9250434235        0.9291301333
 Ca         0.0000287570       27.2049986773        4.1754846218
 Ca         0.0000327285       27.2049606603        7.5654909637
 Ca        -4.7120237681       29.9250895554        4.3025503300
  O        -4.7119866110       24.4842881481        9.2298297297
  H        -4.7118561147       24.4839457396        8.3159512506
  O        -4.7151880026       24.4844187673        5.3177317238
  H        -4.7101713542       24.4838092731        4.3482874533
  O        -4.7096771457       24.4842483306        6.5730299151
  H        -4.7128881783       24.4839402941        7.6068011998
  O        -4.7120062917       24.4841786032        2.6665888904
  H        -4.7120973055       24.4839744447        3.5812797796
  O         0.4026641246       15.2233368144       16.0690880331
  C         0.1009749103       16.3047101146       16.0746284427
  O        -0.1978359574       17.3905729156       16.0831496140
     387
 i =        7, E =     -6918.0382338513
  O         1.9159908566        2.0368295828        1.2559945801
  O         6.7022864603        0.6407067480        1.2560040128
  O         5.5179079330        5.4840240884        1.2559875716
  O         2.7133914831        6.0527480587        4.6800916488
  O        -1.8856308397        7.4846439891        4.6799780478
  O        -0.8269338172        2.7854427343        4.6799954053
  O         2.7814056996        6.1240799128        7.1866452930
  O        -1.9827077724        7.5085442573        7.1866608056
  O        -0.7991830157        2.6908992923        7.1867885973
  O         1.9958089031        2.1037348172        3.7720157647
  O         6.6041548614        0.6768068648        3.7719316162
  O         5.5359251420        5.3810004550        3.7720023585
  O         0.7568130806        3.9543950623        2.4146655611
  O         3.2964791452        3.8814913181        2.5561126355
  P         2.0513165790        2.9829963666        2.4380601781
 Ca        -2.3273512661        8.1743944998        2.5447870438
  O       -13.2268025183       31.3239651461        2.4146342647
  O         4.4142793251        0.9142386632        2.5560650911
  P         5.8150850659        0.2850456460        2.4380768183
 Ca        -1.2040620743        2.0586305119        2.5445848171
  O         7.7579498336        5.5292656351        2.4146456119
  O         6.4252911731        3.3657553296        2.5560369246
  P         6.2694162929        4.8939485481        2.4379442641
 Ca         3.5311114247        6.0896362149        2.5445709701
  O         3.9551507827        4.2007626172        6.0348975754
  O         1.4151508840        4.2814746560        5.8829574073
  P         2.6649682592        5.1834637289        6.0139412939
 Ca         6.9927855793       -0.0177979873        5.9555922464
  O        -0.9037858013        9.4862583563        6.0349723158
  O         0.2968510424        7.2464320251        5.8830534790
  P        -1.1093628864        7.8774833622        6.0136384940
 Ca         5.9431819236        6.0645760014        5.9551346949
  O        15.7963584063        2.6356348361        6.0348137757
  O        -1.7119536963        4.7954575408        5.8828626647
  P        -1.5555643487        3.2618445915        6.0141277699
 Ca         1.2003908651        2.1149489495        5.9555238319
 Ca        -0.0000808570        5.4409005433        1.0428408637
 Ca         4.7120582695        2.7204256200        4.1247453863
 Ca         4.7120778429        2.7202114618        7.4766727468
 Ca        -0.0000894584        5.4409800585        4.3619928711
  O         0.0000371829        0.0000251608        9.4798317923
  H        -0.0002660663        0.0008162306        8.5659796584
  O         0.0008486341       -0.0101750992        5.2478135212
  H        -0.0005123732        0.0070669221        4.2173012961
  O        -0.0008963520        0.0081261342        6.6187506118
  H         0.0006392383       -0.0032659390        7.7718068439
  O         0.0000187944        0.0000511791        2.4165935843
  H         0.0001470216       -0.0011480269        3.3312729275
  O        11.3399755960        2.0368561756        1.2559743832
  O        16.1262847892        0.6407165700        1.2560120734
  O        14.9418816287        5.4840308964        1.2559964315
  O        12.1374331754        6.0528255926        4.6800880601
  O         7.5382943957        7.4846589904        4.6799810464
  O         8.5969381540        2.7857834550        4.6799356706
  O        12.2053730033        6.1240540444        7.1866277858
  O         7.4413490791        7.5085047073        7.1867109377
  O         8.6248591390        2.6907014987        7.1866963271
  O        11.4198462848        2.1038031784        3.7719417707
  O        16.0281914586        0.6768476756        3.7719899238
  O        14.9599039397        5.3810030819        3.7720241529
  O        10.1807903312        3.9544224088        2.4146480325
  O        12.7204585408        3.8815099717        2.5560965958
  P        11.4753728754        2.9829476922        2.4380953415
 Ca         7.0966183565        8.1744327730        2.5447778326
  O        -3.8028077332       31.3240099227        2.4146330557
  O        13.8382699202        0.9142555235        2.5560730638
  P        15.2390603098        0.2849713773        2.4380050164
 Ca         8.2199623461        2.0586118697        2.5447069965
  O        -1.6660549761        5.5292635458        2.4146486741
  O        15.8492902478        3.3657598563        2.5560427605
  P        15.6934259615        4.8939367323        2.4379419497
 Ca        12.9551545634        6.0896068934        2.5445757602
  O        13.3791470259        4.2007828882        6.0348948999
  O        10.8391245027        4.2814875214        5.8829349894
  P        12.0889873819        5.1834858299        6.0140225934
 Ca        16.4168051872       -0.0178931184        5.9555011036
  O         8.5202154671        9.4862258761        6.0349464303
  O         9.7208086695        7.2464499200        5.8830427619
  P         8.3147440278        7.8774742260        6.0136498920
 Ca        15.3671905348        6.0645844131        5.9551096413
  O         6.3723368068        2.6356248256        6.0348400664
  O         7.7120256006        4.7954999880        5.8829377996
  P         7.8685280019        3.2617862335        6.0139909093
 Ca        10.6242948164        2.1147982396        5.9553044092
 Ca         9.4239081308        5.4408840437        1.0429406467
 Ca        14.1360518459        2.7204177564        4.1247392545
 Ca        14.1360977571        2.7202004798        7.4766555681
 Ca         9.4238932363        5.4409361350        4.3620194924
  O         9.4240419900        0.0002056579        9.4798327057
  H         9.4236582440       -0.0004095123        8.5659848156
  O         9.4271832333        0.0026062212        5.2474545298
  H         9.4219247314       -0.0014634702        4.2173799341
  O         9.4212467090       -0.0022772643        6.6190520215
  H         9.4253067910        0.0013470838        7.7718396257
  O         9.4239926095       -0.0000517465        2.4165923853
  H         9.4244083964        0.0002068719        3.3312655100
  O        -2.7959499519       10.1980073390        1.2559145254
  O         1.9902319191        8.8018758639        1.2560346428
  O         0.8059394416       13.6452597807        1.2559222644
  O        -1.9989892736       14.2136604564        4.6799946650
  O        -6.5983722739       15.6462407967        4.6800304652
  O        -5.5389711783       10.9468061619        4.6800069690
  O        -1.9306283657       14.2854935112        7.1865504308
  O        -6.6940923232       15.6697043606        7.1867466644
  O        -5.5111491751       10.8521914511        7.1867653647
  O        -2.7161128986       10.2651050941        3.7720057501
  O         1.8922597031        8.8381774435        3.7720354017
  O         0.8239934372       13.5424132965        3.7720118619
  O        -3.9551123157       12.1154147508        2.4146415276
  O        -1.4155199756       12.0427173232        2.5560423168
  P        -2.6606691911       11.1440423287        2.4380039149
 Ca        -7.0392736153       16.3363965961        2.5445910156
  O         0.9092259189        6.8394922253        2.4146723657
  O        -0.2976342848        9.0755079407        2.5561024386
  P         1.1029852556        8.4462759448        2.4380043105
 Ca        -5.9159422718       10.2198439905        2.5446434471
  O         3.0460187919       13.6903297035        2.4146862777
  O         1.7132074171       11.5269574582        2.5560611605
  P         1.5574887489       13.0552073656        2.4379591198
 Ca        -1.1808047749       14.2508268190        2.5448157850
  O        -0.7565776082       12.3622209044        6.0349300372
  O        -3.2968288856       12.4426033601        5.8830165261
  P        -2.0470536019       13.3449877551        6.0138542231
 Ca         2.2804273720        8.1436356485        5.9557003983
  O        -5.6158133738       17.6479036429        6.0348497251
  O        -4.4153494157       15.4077040337        5.8828382879
  P        -5.8211913462       16.0390666248        6.0140490307
 Ca         1.2313148514       14.2259576779        5.9554641633
  O        11.0843773036       10.7967391299        6.0348292503
  O        -6.4240843165       12.9567164381        5.8828821103
  P        -6.2674624997       11.4231696161        6.0141592379
 Ca        -3.5116448301       10.2755358324        5.9553569660
 Ca        -4.7120497306       13.6020293719        1.0431422557
 Ca         0.0000184085       10.8817916904        4.1248144376
 Ca         0.0001234455       10.8818320881        7.4767106681
 Ca        -4.7120262101       13.6020865700        4.3620655373
  O        14.1362944998        8.1617653276        9.4798344387
  H        14.1345950044        8.1612488000        8.5659573741
  O        14.1517891956        8.1575373402        5.2490813473
  H        14.1251884414        8.1629787268        4.2169356007
  O        14.1235220100        8.1661146376        6.6177218634
  H        14.1412233924        8.1580892652        7.7717535863
  O        14.1358774138        8.1617354289        2.4165854955
  H        14.1378108339        8.1604772255        3.3312780546
  O         6.6280585142       10.1979795089        1.2559220974
  O        11.4142174658        8.8018577916        1.2560300863
  O        10.2299663627       13.6452421275        1.2558833500
  O         7.4247794469       14.2134845276        4.6799653170
  O         2.8253350423       15.6462422399        4.6800703082
  O         3.8850206122       10.9468377343        4.6799803593
  O         7.4935237569       14.2856077089        7.1865388207
  O         2.7300665668       15.6697346017        7.1867194940
  O         3.9128729154       10.8521579593        7.1867855694
  O         6.7078799149       10.2650736291        3.7720223598
  O        11.3162608540        8.8381517229        3.7720065200
  O        10.2480283081       13.5423106941        3.7719694723
  O         5.4688596405       12.1154299611        2.4146349693
  O         8.0084676630       12.0426752509        2.5560373843
  P         6.7633747348       11.1440586596        2.4380169588
 Ca         2.3847865299       16.3364659722        2.5445164119
  O        10.3332311716        6.8394857148        2.4146668353
  O         9.1263403953        9.0755023556        2.5561002781
  P        10.5270459005        8.4462971219        2.4379933963
 Ca         3.5080671690       10.2198129370        2.5446208530
  O        -6.3779456364       13.6903201331        2.4146676429
  O        11.1372469158       11.5269148171        2.5560432599
  P        10.9814921954       13.0551931055        2.4379727592
 Ca         8.2432266148       14.2508624527        2.5448998634
  O         8.6674171861       12.3621796251        6.0349373686
  O         6.1271844016       12.4425920667        5.8830550286
  P         7.3769620276       13.3449693591        6.0136423512
 Ca        11.7043468593        8.1436344272        5.9556949287
  O         3.8081685456       17.6478683790        6.0348456098
  O         5.0086933392       15.4076685376        5.8827837960
  P         3.6027006433       16.0390918183        6.0142764342
 Ca        10.6551075439       14.2262519546        5.9552434265
  O         1.6603624230       10.7967790220        6.0348291181
  O         2.9998930336       12.9566835453        5.8828965413
  P         3.1564976390       11.4232009920        6.0141142260
 Ca         5.9123524196       10.2755745487        5.9554258463
 Ca         4.7119733223       13.6020088838        1.0430495179
 Ca         9.4240018206       10.8818589548        4.1247973410
 Ca         9.4240119711       10.8819069851        7.4765840926
 Ca         4.7120651187       13.6020454595        4.3620628641
  O         4.7122998617        8.1617586026        9.4798260334
  H         4.7107462176        8.1613241441        8.5659419249
  O         4.7250071846        8.1571193440        5.2489898701
  H         4.7030779658        8.1632586690        4.2168883954
  O         4.7016752693        8.1664262272        6.6179032678
  H         4.7163971892        8.1579574377        7.7716509821
  O         4.7118936226        8.1617348507        2.4165821011
  H         4.7134891476        8.1604468630        3.3312790521
  O        -7.5080666822       18.3598471042        1.2559571281
  O        -2.7217446256       16.9634520996        1.2558948104
  O        -3.9061555988       21.8067876877        1.2558001415
  O        -6.7108465986       22.3750414673        4.6799822633
  O       -11.3100136453       23.8075293619        4.6800228665
  O       -10.2508044362       19.1081617148        4.6800091652
  O        -6.6424533363       22.4467266273        7.1866757126
  O       -11.4063658085       23.8310936019        7.1866930420
  O       -10.2231781173       19.0136529478        7.1866760305
  O        -7.4282865378       18.4266130904        3.7720583679
  O        -2.8199643849       16.9995741076        3.7718735185
  O        -3.8880927213       21.7039911916        3.7720373882
  O        -8.6671952400       20.2774134409        2.4146704777
  O        -6.1275080347       20.2041981244        2.5561033318
  P        -7.3727753206       19.3060081852        2.4380053304
 Ca       -11.7512960506       24.4976348112        2.5447203604
  O        -3.8027517526       15.0013278257        2.4145971603
  O        -5.0097754632       17.2370724966        2.5560619349
  P        -3.6088356488       16.6078231426        2.4381038382
 Ca       -10.6281414255       18.3814207448        2.5446212876
  O        -1.6662147969       21.8522040664        2.4146703703
  O        -2.9984708614       19.6884926608        2.5560858625
  P        -3.1544042207       21.2163934146        2.4379418508
 Ca        -5.8927791861       22.4124097955        2.5447375493
  O        -5.4687797499       20.5230580735        6.0348845127
  O        -8.0089555103       20.6040356345        5.8830345515
  P        -6.7589124450       21.5062003985        6.0138172288
 Ca        -2.4312478100       16.3049973113        5.9549564492
  O       -10.3278464709       25.8090274424        6.0349038959
  O        -9.1271283220       23.5691587170        5.8829297310
  P       -10.5333149741       24.2004294063        6.0138932101
 Ca        -3.4807959061       22.3874674938        5.9555814938
  O         6.3726346307       18.9579850340        6.0348713108
  O       -11.1362820535       21.1184751962        5.8828185356
  P       -10.9794392129       19.5842291594        6.0142497375
 Ca        -8.2236179998       18.4379966151        5.9556971212
 Ca        -9.4241140939       21.7640378039        1.0430169565
 Ca        -4.7117586994       19.0432938164        4.1247715908
 Ca        -4.7119155330       19.0432385405        7.4766095536
 Ca        -9.4241198150       21.7639921190        4.3620697175
  O        -9.4241858944       16.3227101898        9.4798592686
  H        -9.4229975438       16.3240909408        8.5659731869
  O        -9.4354812970       16.3075050724        5.2481040712
  H        -9.4163118447       16.3336894016        4.2172781587
  O        -9.4149300676       16.3344174883        6.6184698423
  H        -9.4278314166       16.3187390009        7.7717158954
  O        -9.4238985740       16.3229083213        2.4165892647
  H        -9.4251939225       16.3212565920        3.3312795222
  O         1.9159348807       18.3598130906        1.2559457379
  O         6.7022515060       16.9634748802        1.2559120339
  O         5.5178846787       21.8067863618        1.2557449825
  O         2.7130061540       22.3749838526        4.6799340980
  O        -1.8864820910       23.8075838447        4.6800966385
  O        -0.8269517414       19.1086326494        4.6799454329
  O         2.7816868877       22.4467003185        7.1866167281
  O        -1.9821240296       23.8310235322        7.1867783475
  O        -0.7991466564       19.0133049327        7.1865782881
  O         1.9957630504       18.4266172118        3.7720166385
  O         6.6040868238       16.9995951406        3.7719372070
  O         5.5359619746       21.7038721654        3.7719095669
  O         0.7568092401       20.2774154620        2.4146526997
  O         3.2965055796       20.2041909345        2.5560879565
  P         2.0512286419       19.3060028041        2.4380655462
 Ca        -2.3272791246       24.4976654736        2.5445562613
  O         5.6212227777       15.0013262469        2.4145945822
  O         4.4142505682       17.2370500837        2.5560715992
  P         5.8151531821       16.6078334804        2.4380802912
 Ca        -1.2041040844       18.3814752894        2.5447249782
  O       -11.0901977497       21.8522003430        2.4146497141
  O         6.4255718301       19.6884517612        2.5560657838
  P         6.2695519046       21.2164188326        2.4380059848
 Ca         3.5312122876       22.4123908303        2.5447869494
  O         3.9552207574       20.5230278017        6.0349105458
  O         1.4150564264       20.6040266076        5.8830592569
  P         2.6651124637       21.5062214855        6.0137936464
 Ca         6.9928717287       16.3049139277        5.9551592223
  O        -0.9038406355       25.8090116509        6.0348614363
  O         0.2968178143       23.5691985573        5.8828367833
  P        -1.1092099971       24.2004513372        6.0140784949
 Ca         5.9430647490       22.3877066215        5.9551804895
  O        -3.0513582112       18.9579762913        6.0349249506
  O        -1.7123152381       21.1185286438        5.8829455909
  P        -1.5553455785       19.5840810250        6.0140523623
 Ca         1.2002712403       18.4379382078        5.9554117357
 Ca        -0.0001347210       21.7640477605        1.0428578605
 Ca         4.7122336624       19.0433168026        4.1247509172
 Ca         4.7121620134       19.0431649772        7.4764460633
 Ca        -0.0000780545       21.7639413684        4.3620415981
  O        -0.0002177056       16.3229130056        9.4799819088
  H         0.0015453969       16.3228582071        8.5660389885
  O        -0.0164935894       16.3228630679        5.2477209829
  H         0.0109738476       16.3233415746        4.2176164464
  O         0.0133109230       16.3222823253        6.6188237315
  H        -0.0058666316       16.3237373522        7.7716906176
  O         0.0001391929       16.3227848945        2.4165984594
  H        -0.0017004009       16.3229390451        3.3312957040
  O       -12.2199578999       26.5209015081        1.2560480934
  O        -7.4338172696       25.1247401636        1.2559748757
  O        -8.6181011521       29.9681681371        1.2559561745
  O       -11.4227315186       30.5369056041        4.6800038278
  O       -16.0220161849       31.9689791387        4.6800153257
  O       -14.9628564240       27.2694915013        4.6799998274
  O       -11.3548296047       30.6081801247        7.1866323324
  O       -16.1183062015       31.9927348012        7.1866104120
  O       -14.9352296760       27.1751761439        7.1866762789
  O       -12.1401994604       26.5879081089        3.7720333280
  O        -7.5319221800       25.1609884718        3.7718983951
  O        -8.6000881660       29.8652460492        3.7720769714
  O       -13.3791600555       28.4384277078        2.4146758590
  O       -10.8395301407       28.3656136424        2.5560840167
  P       -12.0846684357       27.4669636039        2.4380344081
 Ca       -16.4632807819       32.6589371098        2.5445886919
  O        -8.5147805471       23.1624250967        2.4146570346
  O        -9.7217446687       25.3984272592        2.5560871116
  P        -8.3209145761       24.7691958000        2.4380386171
 Ca       -15.3401033650       26.5426548093        2.5445366333
  O        -6.3780184001       30.0133114634        2.4146864434
  O        -7.7107422252       27.8498967381        2.5560578109
  P        -7.8664350949       29.3779602067        2.4379741601
 Ca       -10.6048465178       30.5738440315        2.5446022706
  O       -10.1806777554       28.6851207733        6.0348449018
  O       -12.7207949162       28.7655538231        5.8829200729
  P       -11.4710646173       29.6677546741        6.0141176282
 Ca        -7.1432236162       24.4666812992        5.9552047162
  O         3.8082299707        1.3251570856        6.0348447936
  O       -13.8392584590       31.7306345714        5.8828950032
  P       -15.2452640211       32.3619528809        6.0139424858
 Ca        -8.1926402685       30.5492773666        5.9554175461
  O         1.6603784737       27.1196810420        6.0347997928
  O       -15.8480616796       29.2797205966        5.8828157517
  P       -15.6914657357       27.7459624410        6.0143046224
 Ca       -12.9355771317       26.5989727657        5.9556571237
 Ca       -14.1360628270       29.9250876832        1.0428419277
 Ca        -9.4239262201       27.2049432010        4.1247925902
 Ca        -9.4239744022       27.2050237932        7.4765928186
 Ca       -14.1360605399       29.9251971365        4.3620077577
  O         4.7120002632       24.4843226334        9.4798447161
  H         4.7119499839       24.4851337314        8.5659674091
  O         4.7111988484       24.4685893258        5.2478362986
  H         4.7126439878       24.4943610958        4.2173156232
  O         4.7123587628       24.4974400385        6.6186885077
  H         4.7120788651       24.4782706497        7.7717707984
  O         4.7120062756       24.4843939868        2.4165921680
  H         4.7119381573       24.4821914468        3.3312756972
  O        -2.7959540887       26.5209059224        1.2560625873
  O         1.9902294245       25.1247727618        1.2559873753
  O         0.8059359133       29.9681614024        1.2559647494
  O        -1.9989853860       30.5366606102        4.6799917199
  O        -6.5980270110       31.9689386810        4.6800242290
  O        -5.5390330908       27.2700882582        4.6799544283
  O        -1.9306225336       30.6083725406        7.1866217122
  O        -6.6943112035       31.9927729457        7.1866293544
  O        -5.5111521224       27.1747284725        7.1866805192
  O        -2.7161545786       26.5878680534        3.7720760452
  O         1.8921989447       25.1610030879        3.7719723741
  O         0.8239876876       29.8651597932        3.7719923223
  O        -3.9551244183       28.4384072257        2.4146665203
  O        -1.4154844585       28.3656185274        2.5560874883
  P        -2.6607571837       27.4670024210        2.4379681597
 Ca        -7.0392615963       32.6589540049        2.5446147978
  O         0.9092189839       23.1624520317        2.4146656218
  O        -0.2976754455       25.3984234173        2.5561108913
  P         1.1030262209       24.7691556105        2.4380477974
 Ca        -5.9160240011       26.5426366353        2.5447050862
  O       -15.8019464273       30.0133207980        2.4146884997
  O         1.7133087856       27.8498867912        2.5560518543
  P         1.5574402103       29.3779567353        2.4380270933
 Ca        -1.1808415461       30.5738516662        2.5447018814
  O        -0.7566381749       28.6851075437        6.0348983388
  O        -3.2967746056       28.7655499397        5.8830098499
  P        -2.0470895351       29.6677751476        6.0138464978
 Ca         2.2806917911       24.4665954648        5.9555170309
  O        13.2322407744        1.3251625162        6.0348490419
  O        -4.4152573309       31.7306435081        5.8829044207
  P        -5.8212411557       32.3619791790        6.0139036931
 Ca         1.2312385538       30.5493060604        5.9551892864
  O        -7.7636482297       27.1196634081        6.0348774365
  O        -6.4241196727       29.2796896038        5.8829758504
  P        -6.2674645366       27.7459982288        6.0138625135
 Ca        -3.5117249432       26.5989010639        5.9554703815
 Ca        -4.7120293113       29.9250748398        1.0428608939
 Ca         0.0000464347       27.2049678545        4.1247985605
 Ca         0.0000420633       27.2049105976        7.4766663236
 Ca        -4.7120328946       29.9251517864        4.3620109225
  O        -4.7121723129       24.4845721814        9.4798297297
  H        -4.7108136306       24.4836702664        8.5659512506
  O        -4.7245631860       24.4851356207        5.2485761465
  H        -4.7035588184       24.4831755710        4.2170214394
  O        -4.7019832431       24.4842657856        6.6181990741
  H        -4.7163616743       24.4838397935        7.7717065655
  O        -4.7118990759       24.4842633625        2.4165888904
  H        -4.7132740152       24.4839929171        3.3312797796
  O         0.4564992907       15.0092866608       16.0695198873
  C         0.0929319141       16.3367901833       16.0694767851
  O        -0.2528893473       17.5781122688       16.0753025413
     387
 i =        8, E =     -6918.2916839379
  O         1.8953966746        2.0179133932        1.2517755931
  O         6.7291114036        0.6321341971        1.2518349886
  O         5.5116092388        5.5112977930        1.2516014757
  O         2.7061605203        6.0371646254        4.6951848728
  O        -1.8676430060        7.4859847542        4.6948913688
  O        -0.8367320100        2.7990392511        4.6952883084
  O         2.7933835270        6.1439429148        7.1906853316
  O        -2.0069953200        7.5095321562        7.1903832370
  O        -0.7878826248        2.6705744917        7.1908672264
  O         1.9981000708        2.1175954418        3.7479755424
  O         6.5908596445        0.6717408255        3.7479404270
  O         5.5468163162        5.3718677715        3.7477926814
  O         0.7584313696        3.9296555983        2.3997942744
  O         3.2687449535        3.8833233565        2.5507475176
  P         2.0196092366        2.9770230237        2.4407595500
 Ca        -2.3262555189        8.1908804537        2.5508849433
  O       -13.2064063846       31.3376684667        2.3997043965
  O         4.4266011189        0.8893921330        2.5506498162
  P         5.8360003810        0.2606813960        2.4407408513
 Ca        -1.2190290724        2.0515642885        2.5502116703
  O         7.7357182144        5.5402518908        2.3997196929
  O         6.4407412291        3.3891575960        2.5505431183
  P         6.2803435237        4.9235533786        2.4409580763
 Ca         3.5448519624        6.0801965065        2.5503045991
  O         3.9539990499        4.2208477109        6.0579494904
  O         1.4465766386        4.2875975646        5.8802481933
  P         2.6957724933        5.1811784872        5.9993058694
 Ca         7.0077511811       -0.0320706012        5.9518707929
  O        -0.9203473085        9.4750192596        6.0581081768
  O         0.2757951322        7.2704210216        5.8806441893
  P        -1.1230549251        7.9053067762        5.9986253836
 Ca         5.9480606557        6.0851611166        5.9509959555
  O        15.8144276364        2.6265500269        6.0577878224
  O        -1.7222438347        4.7648320657        5.8800621322
  P        -1.5730144664        3.2365919132        5.9995000706
 Ca         1.1805044559        2.1094427339        5.9520172666
 Ca        -0.0001287567        5.4408970799        1.0939102732
 Ca         4.7121260694        2.7205887327        4.0934165006
 Ca         4.7120868762        2.7203734219        7.4297503439
 Ca        -0.0001729414        5.4410965813        4.3954801783
  O         0.0000752746       -0.0002830360        9.7298317923
  H        -0.0005320879        0.0021184965        8.6459040071
  O         0.0019719559       -0.0234333215        5.2070940884
  H        -0.0012671283        0.0172604038        4.1685196898
  O        -0.0018142844        0.0177561209        6.6386296885
  H         0.0013684612       -0.0076775689        7.8698429207
  O        -0.0000221009        0.0003810617        2.1977790746
  H         0.0003336454       -0.0031281594        3.2192655877
  O        11.3193799225        2.0179330697        1.2517287263
  O        16.1531360877        0.6321593515        1.2518222333
  O        14.9356038056        5.5112881648        1.2516240915
  O        12.1302883281        6.0373249175        4.6952314216
  O         7.5561777838        7.4860490800        4.6949355223
  O         8.5869853737        2.7998868016        4.6951516919
  O        12.2172897103        6.1439302520        7.1907670743
  O         7.4172441099        7.5094653654        7.1903849731
  O         8.6363079535        2.6698235207        7.1907521804
  O        11.4222444711        2.1177222099        3.7478422259
  O        16.0148904669        0.6717913263        3.7479338206
  O        14.9708185331        5.3718577627        3.7478003130
  O        10.1824353095        3.9296725401        2.3997681311
  O        12.6927791728        3.8833987340        2.5507086660
  P        11.4436162422        2.9769740427        2.4408257257
 Ca         7.0977407155        8.1909130540        2.5508329808
  O        -3.7824317574       31.3376934653        2.3996838311
  O        13.8506374089        0.8893963895        2.5506527689
  P        15.2599599135        0.2606718415        2.4407539394
 Ca         8.2050791293        2.0515353031        2.5505101208
  O        -1.6882569916        5.5402341314        2.3997060730
  O        15.8647696431        3.3891462181        2.5505583986
  P        15.7043124934        4.9235866018        2.4409464644
 Ca        12.9688777784        6.0801408207        2.5502785256
  O        13.3780150718        4.2208802733        6.0579510013
  O        10.8705931500        4.2876642105        5.8801882072
  P        12.1197068611        5.1810730295        5.9993191686
 Ca        16.4318503500       -0.0323029034        5.9516574414
  O         8.5036627334        9.4749918879        6.0580518211
  O         9.6998539942        7.2704058597        5.8805962669
  P         8.3008524013        7.9052878094        5.9987883274
 Ca        15.3720719080        6.0851920820        5.9509230391
  O         6.3904165980        2.6265249962        6.0578898333
  O         7.7017258269        4.7648397563        5.8803332991
  P         7.8510420873        3.2366168410        5.9989388816
 Ca        10.6042148812        2.1089139960        5.9513331660
 Ca         9.4238653366        5.4408586309        1.0940041817
 Ca        14.1360677335        2.7205741117        4.0934020555
 Ca        14.1361086378        2.7203547098        7.4297230638
 Ca         9.4237842978        5.4409660829        4.3954975465
  O         9.4241495919        0.0002987799        9.7298327057
  H         9.4231299829       -0.0009497692        8.6459074099
  O         9.4310900706        0.0057206266        5.2075787422
  H         9.4188486209       -0.0037610996        4.1681486759
  O         9.4181971971       -0.0049100396        6.6385354918
  H         9.4269924398        0.0029410437        7.8700245887
  O         9.4238811918       -0.0001202057        2.1977796518
  H         9.4250384246        0.0006078203        3.2192196663
  O        -2.8164435772       10.1790882182        1.2515921224
  O         2.0170922145        8.7933071096        1.2518379714
  O         0.7996938350       13.6726660823        1.2515861630
  O        -2.0066168784       14.1976430226        4.6950478309
  O        -6.5814817997       15.6481123726        4.6952746784
  O        -5.5488947105       10.9605406983        4.6952437145
  O        -1.9182878880       14.3061887183        7.1907554207
  O        -6.7172025261       15.6701035236        7.1907921289
  O        -5.4998200402       10.8321215207        7.1908969101
  O        -2.7137224464       10.2791584699        3.7477900540
  O         1.8790800621        8.8331775424        3.7480351658
  O         0.8349194536       13.5335482769        3.7479308491
  O        -3.9535510514       12.0908070742        2.3997435497
  O        -1.4432287162       12.0446768684        2.5505950382
  P        -2.6922140478       11.1381664655        2.4408784140
 Ca        -7.0380392301       16.3526344139        2.5502156423
  O         0.9296825506        6.8532944508        2.3998160359
  O        -0.2852956545        9.0507865464        2.5506862460
  P         1.1238975694        8.4219834046        2.4407352326
 Ca        -5.9308566419       10.2127487809        2.5502905806
  O         3.0237922650       13.7013977012        2.3998488119
  O         1.7286687880       11.5504643900        2.5506210872
  P         1.5683688774       13.0848849277        2.4408160419
 Ca        -1.1671427765       14.2415147120        2.5507968765
  O        -0.7577518658       12.3823692097        6.0580802965
  O        -3.2652778408       12.4489259996        5.8805492242
  P        -2.0164049426       13.3423318922        5.9984579681
 Ca         2.2950309393        8.1292046425        5.9523755441
  O        -5.6324053557       17.6368511976        6.0578358395
  O        -4.4364256792       15.4316068473        5.8800584480
  P        -5.8348080367       16.0666714838        5.9994728940
 Ca         1.2363320360       14.2456595221        5.9519496498
  O        11.1024503811       10.7876819583        6.0578126121
  O        -6.4344451608       12.9262533404        5.8801222687
  P        -6.2848990040       11.3979475169        5.9995380146
 Ca        -3.5316117059       10.2695764600        5.9515183077
 Ca        -4.7120264660       13.6020738257        1.0942784569
 Ca        -0.0000426514       10.8817492455        4.0935298456
 Ca         0.0001347257       10.8817146608        7.4297508184
 Ca        -4.7119579264       13.6020706069        4.3955696509
  O        14.1367860067        8.1616499466        9.7298344387
  H        14.1324114317        8.1621183961        8.6459351643
  O        14.1739276305        8.1518744797        5.2051196124
  H        14.1095620522        8.1662493226        4.1695870080
  O        14.1077441298        8.1710950540        6.6394483481
  H        14.1481630307        8.1545928345        7.8693944538
  O        14.1353749572        8.1618312028        2.1976952710
  H        14.1408983861        8.1596826047        3.2193515059
  O         6.6075617919       10.1790734703        1.2516297736
  O        11.4411156395        8.7932990569        1.2517932960
  O        10.2237396948       13.6726436858        1.2515178619
  O         7.4167678782       14.1972597440        4.6948846735
  O         2.8418624086       15.6481252386        4.6954227550
  O         3.8750857186       10.9606439387        4.6952156620
  O         7.5062198702       14.3063712151        7.1905268689
  O         2.7071026467       15.6700041390        7.1910537171
  O         3.9241144101       10.8321135832        7.1908077891
  O         6.7102442451       10.2791198138        3.7478232440
  O        11.3031357902        8.8331540829        3.7480616461
  O        10.2590204758       13.5332670037        3.7477219618
  O         5.4704181489       12.0908146861        2.3997147338
  O         7.9807751156       12.0446521586        2.5505888089
  P         6.7317694883       11.1381510443        2.4408550731
 Ca         2.3860452433       16.3527962959        2.5500462563
  O        10.3537098419        6.8533265844        2.3998327902
  O         9.1387425908        9.0507624572        2.5506907137
  P        10.5478345463        8.4219696712        2.4407233666
 Ca         3.4931594359       10.2126819199        2.5502770540
  O        -6.4001432831       13.7013771552        2.3998123955
  O        11.1527445116       11.5503527923        2.5505549113
  P        10.9923090579       13.0848730132        2.4409376206
 Ca         8.2570036692       14.2415651108        2.5510676961
  O         8.6662095636       12.3823122270        6.0581024047
  O         6.1586971989       12.4488627239        5.8806910984
  P         7.4076725306       13.3424667273        5.9981689728
 Ca        11.7188220728        8.1292070411        5.9524364747
  O         3.7915392718       17.6367791728        6.0577961071
  O         4.9874334526       15.4316239987        5.8799248048
  P         3.5894592088       16.0667345898        5.9996346065
 Ca        10.6597585277       14.2463858012        5.9512497408
  O         1.6784300831       10.7877633704        6.0577973792
  O         2.9895108428       12.9262960929        5.8801710985
  P         3.1391547841       11.3977754938        5.9995991440
 Ca         5.8923862598       10.2696699250        5.9516549234
 Ca         4.7120401276       13.6020436915        1.0941877555
 Ca         9.4239735515       10.8818809491        4.0934951403
 Ca         9.4239995859       10.8818252953        7.4295886474
 Ca         4.7122606409       13.6020056226        4.3955693826
  O         4.7127020237        8.1616220851        9.7298260334
  H         4.7089150422        8.1622622779        8.6458957190
  O         4.7426862885        8.1509938960        5.2052238777
  H         4.6902006301        8.1669300287        4.1693897739
  O         4.6888815021        8.1717360861        6.6395755321
  H         4.7222011806        8.1542810014        7.8693730618
  O         4.7114686600        8.1618439103        2.1977173806
  H         4.7160410467        8.1595811061        3.2192916631
  O        -7.5287459052       18.3409283120        1.2517297646
  O        -2.6948286711       16.9549034054        1.2516330279
  O        -3.9122856333       21.8341395361        1.2517106478
  O        -6.7184065636       22.3591660527        4.6951423818
  O       -11.2926827239       23.8092729425        4.6951135892
  O       -10.2605217052       19.1217487564        4.6953949080
  O        -6.6300242299       22.4671993793        7.1906874262
  O       -11.4300636891       23.8316895529        7.1906520704
  O       -10.2117222115       18.9931035749        7.1910398317
  O        -7.4260987591       18.4403236850        3.7481199899
  O        -2.8333846457       16.9946648555        3.7477501579
  O        -3.8771084362       21.6950564874        3.7478210646
  O        -8.6655694342       20.2526425962        2.3998681896
  O        -6.1551570719       20.2060068921        2.5507813082
  P        -7.4045178932       19.2999667538        2.4406545009
 Ca       -11.7501249860       24.5139642066        2.5505409773
  O        -3.7824356247       15.0150049394        2.3996788521
  O        -4.9974981994       17.2122708801        2.5506288719
  P        -3.5879843471       16.5835713526        2.4407970905
 Ca       -10.6430922742       18.3741303097        2.5502259537
  O        -1.6883526994       21.8631523178        2.3997794991
  O        -2.9830872724       19.7118528231        2.5506535061
  P        -3.1437723019       21.2464958646        2.4406307739
 Ca        -5.8791105274       22.4032559790        2.5506150309
  O        -5.4700601297       20.5432559124        6.0579528759
  O        -7.9773353874       20.6103004791        5.8805776483
  P        -6.7282023869       21.5038359441        5.9986781264
 Ca        -2.4157689427       16.2906109661        5.9504657372
  O       -10.3444173028       25.7980243058        6.0579972917
  O        -9.1482659661       23.5931854522        5.8803147194
  P       -10.5467893729       24.2280266705        5.9990732417
 Ca        -3.4757773772       22.4074754483        5.9520838693
  O         6.3906598648       18.9489848532        6.0579002852
  O       -11.1464092245       21.0873663889        5.8800609753
  P       -10.9971532217       19.5597521537        5.9992093102
 Ca        -8.2433090847       18.4327692562        5.9524730674
 Ca        -9.4241980818       21.7640526760        1.0940716031
 Ca        -4.7116916868       19.0432744401        4.0934270161
 Ca        -4.7119459385       19.0432535939        7.4295593711
 Ca        -9.4241680155       21.7640515600        4.3955689700
  O        -9.4245349877       16.3222646487        9.7298592686
  H        -9.4214400114       16.3258939681        8.6460327537
  O        -9.4520616214       16.2852490491        5.2069199745
  H        -9.4050847612       16.3490756160        4.1689985259
  O        -9.4032499424       16.3495343292        6.6382911722
  H        -9.4328907717       16.3127962606        7.8695299429
  O        -9.4235619941       16.3234099972        2.1976949057
  H        -9.4273195786       16.3182733295        3.2193908287
  O         1.8952500079       18.3409123422        1.2517408268
  O         6.7291569453       16.9549343932        1.2516659128
  O         5.5117693018       21.8341291648        1.2516344501
  O         2.7051373808       22.3590398899        4.6951210245
  O        -1.8697888198       23.8094372605        4.6952886543
  O        -0.8368253231       19.1230007890        4.6952164959
  O         2.7943933889       22.4673508217        7.1906963193
  O        -2.0051045644       23.8314377032        7.1908069658
  O        -0.7875324643       18.9919484770        7.1909214834
  O         1.9980156237       18.4403619268        3.7480411339
  O         6.5907476871       16.9946796068        3.7478694935
  O         5.5469696197       21.6947312170        3.7475882675
  O         0.7584018598       20.2527003448        2.3997787658
  O         3.2688392305       20.2059958788        2.5507398795
  P         2.0195323915       19.2999332414        2.4406775257
 Ca        -2.3260531455       24.5141126872        2.5501741235
  O         5.6415111804       15.0150264033        2.3996621012
  O         4.4265360425       17.2122334213        2.5506728589
  P         5.8360419406       16.5835376548        2.4407589788
 Ca        -1.2189833794       18.3740884255        2.5506052022
  O       -11.1123180082       21.8631201801        2.3997607173
  O         6.4410026930       19.7117340876        2.5506045774
  P         6.2801333398       21.2465137573        2.4407179836
 Ca         3.5450567629       22.4032441876        2.5507930796
  O         3.9538929213       20.5432430953        6.0580210164
  O         1.4466798631       20.6103162617        5.8806760504
  P         2.6958598839       21.5037250270        5.9983050855
 Ca         7.0082799100       16.2903184449        5.9508526594
  O        -0.9203702692       25.7979719257        6.0578550615
  O         0.2757409957       23.5932217580        5.8800285600
  P        -1.1228190103       24.2281370656        5.9997622938
 Ca         5.9477325504       22.4081981828        5.9509391890
  O        -3.0333110451       18.9489814513        6.0580793803
  O        -1.7224431406       21.0873481360        5.8805034642
  P        -1.5731091289       19.5596801307        5.9984315675
 Ca         1.1803317690       18.4323987367        5.9516964910
 Ca        -0.0001839381       21.7640347686        1.0939547722
 Ca         4.7123304898       19.0433757126        4.0933781214
 Ca         4.7122478077       19.0431537063        7.4293741002
 Ca        -0.0000609101       21.7638447273        4.3955404634
  O        -0.0007377247       16.3229303284        9.7299819088
  H         0.0038803455       16.3226909309        8.6464166145
  O        -0.0395923109       16.3229260509        5.2077944403
  H         0.0270251056       16.3236468540        4.1687298717
  O         0.0299923541       16.3218600790        6.6380745991
  H        -0.0135084389       16.3244620514        7.8695748916
  O         0.0006332319       16.3228148176        2.1978129561
  H        -0.0047346447       16.3228648628        3.2193846910
  O       -12.2404836254       26.5019475005        1.2517546823
  O        -7.4069149115       25.1161762923        1.2516689152
  O        -8.6243123145       29.9954447608        1.2517015201
  O       -11.4299348299       30.5212636457        4.6952740477
  O       -16.0046030815       31.9705486988        4.6951528073
  O       -14.9726092061       27.2829782466        4.6953722295
  O       -11.3429731217       30.6282958683        7.1909238146
  O       -16.1420120004       31.9933169813        7.1906181506
  O       -14.9238519173       27.1550802313        7.1910371619
  O       -12.1379628454       26.6017622347        3.7480934759
  O        -7.5453467892       25.1560588894        3.7477119662
  O        -8.5891571493       29.8562234991        3.7479141772
  O       -13.3775508619       28.4137311509        2.3997803420
  O       -10.8673212212       28.3674670881        2.5507168411
  P       -12.1163123831       27.4612398818        2.4407679217
 Ca       -16.4621188373       32.6754496673        2.5504154509
  O        -8.4943527994       23.1762111588        2.3998192079
  O        -9.7094283696       25.3736830518        2.5506166169
  P        -8.3001157961       24.7449510713        2.4409431157
 Ca       -15.3550833878       26.5356485184        2.5501083082
  O        -6.4001926410       30.0243095524        2.3997641323
  O        -7.6952596190       27.8732436767        2.5506028624
  P        -7.8556645501       29.4078883050        2.4408381355
 Ca       -10.5911224820       30.5644817931        2.5503427624
  O       -10.1818940832       28.7051534178        6.0578823646
  O       -12.6893230723       28.7717674167        5.8802572393
  P       -11.4403108731       29.6653145160        5.9990634273
 Ca        -7.1277926983       24.4523397320        5.9509660255
  O         3.7915999786        1.3139388084        6.0578527579
  O       -13.8603326375       31.7545051236        5.8803260491
  P       -15.2587819187       32.3896733605        5.9989143884
 Ca        -8.1875947065       30.5694131333        5.9515926330
  O         1.6784571414       27.1106060587        6.0577853916
  O       -15.8583317067       29.2489636183        5.8799858706
  P       -15.7091302417       27.7210633922        5.9994743433
 Ca       -12.9553446306       26.5936731363        5.9523347594
 Ca       -14.1360734780       29.9251522929        1.0939764845
 Ca        -9.4238467069       27.2048695801        4.0934613082
 Ca        -9.4239766644       27.2049572609        7.4295874678
 Ca       -14.1360981641       29.9253309893        4.3954839633
  O         4.7119855739       24.4838513063        9.7298447161
  H         4.7119158702       24.4873069809        8.6459928681
  O         4.7101274579       24.4467191774        5.2072770522
  H         4.7135439005       24.5095947351        4.1686615364
  O         4.7129771350       24.5135576545        6.6382781719
  H         4.7120968448       24.4706770904        7.8696766966
  O         4.7120151430       24.4849409404        2.1977306572
  H         4.7117916955       24.4791504326        3.2193200568
  O        -2.8164838501       26.5018830706        1.2517160138
  O         2.0170543282       25.1161969727        1.2517874470
  O         0.7997136950       29.9954536664        1.2516500709
  O        -2.0066081736       30.5207183659        4.6950897568
  O        -6.5806362820       31.9704146350        4.6951572597
  O        -5.5489166734       27.2845063234        4.6950742823
  O        -1.9183033276       30.6286956471        7.1906733775
  O        -6.7179987382       31.9934519516        7.1905985486
  O        -5.4998527412       27.1538173210        7.1906145754
  O        -2.7138564649       26.6017382488        3.7480221821
  O         1.8789086060       25.1560546671        3.7479280407
  O         0.8349350348       29.8560303526        3.7477791661
  O        -3.9535187584       28.4137294645        2.3997297778
  O        -1.4433171165       28.3674112788        2.5506865512
  P        -2.6922813805       27.4613278870        2.4408526864
 Ca        -7.0381350731       32.6755480230        2.5504788860
  O         0.9296048341       23.1762547249        2.3998259256
  O        -0.2853774574       25.3736707174        2.5507098514
  P         1.1239985646       24.7448717519        2.4407954837
 Ca        -5.9310026187       26.5355425973        2.5506499370
  O       -15.8241594741       30.0242996787        2.3997703758
  O         1.7288175731       27.8731829174        2.5505858288
  P         1.5682971508       29.4078836502        2.4409349686
 Ca        -1.1670749962       30.5645309067        2.5506643046
  O        -0.7578381877       28.7051208962        6.0580150036
  O        -3.2653192287       28.7717277625        5.8805007926
  P        -2.0162749256       29.6654493790        5.9986833498
 Ca         2.2957714450       24.4519992958        5.9515926185
  O        13.2156257210        1.3139459703        6.0578546575
  O        -4.4363448980       31.7545157215        5.8803372698
  P        -5.8347765539       32.3897088640        5.9989133929
 Ca         1.2359870684       30.5696354272        5.9510647850
  O        -7.7455731389       27.1106248686        6.0579581779
  O        -6.4344690486       29.2490727928        5.8804546419
  P        -6.2849382996       27.7207696048        5.9988401040
 Ca        -3.5318293535       26.5934010351        5.9518205479
 Ca        -4.7120359308       29.9251361614        1.0940068350
 Ca         0.0000850435       27.2049915727        4.0934793624
 Ca         0.0000186197       27.2048480104        7.4296623482
 Ca        -4.7120447157       29.9252004036        4.3955194224
  O        -4.7125623271       24.4846133380        9.7298297297
  H        -4.7090426045       24.4835644656        8.6459693232
  O        -4.7413100793       24.4861776628        5.2059194401
  H        -4.6912816499       24.4821424621        4.1690545611
  O        -4.6897436898       24.4838306752        6.6392452453
  H        -4.7220657472       24.4836399444        7.8694744962
  O        -4.7115121065       24.4842875866        2.1977362689
  H        -4.7155848164       24.4840947239        3.2192884609
  O         0.4079362689       15.1637975678       16.0692461814
  C         0.1020707359       16.2994608559       16.0666209125
  O        -0.2232836523       17.4633800714       16.0674794205
     387
 i =        9, E =     -6918.4357791656
  O         1.8973839820        2.0211915602        1.2528916553
  O         6.7252479623        0.6322972842        1.2529562617
  O         5.5135468550        5.5077628226        1.2528989202
  O         2.7053551310        6.0415048999        4.6909875644
  O        -1.8701229694        7.4829771124        4.6904288415
  O        -0.8325753049        2.7972880260        4.6911262628
  O         2.7910865935        6.1399403379        7.1869691267
  O        -2.0031028633        7.5098150781        7.1865219055
  O        -0.7903069497        2.6748812930        7.1871124156
  O         1.9989250738        2.1135207137        3.7500522915
  O         6.5939578284        0.6744532820        3.7500071295
  O         5.5428662987        5.3730923429        3.7498341030
  O         0.7499081521        3.9288652737        2.4014135964
  O         3.2641542685        3.8763621203        2.5438985211
  P         2.0161020215        2.9704423043        2.4377933329
 Ca        -2.3297489748        8.1918375549        2.5485746481
  O       -13.2015227250       31.3307062647        2.4013152874
  O         4.4349048463        0.8888795317        2.5437753369
  P         5.8434602742        0.2608491199        2.4377699988
 Ca        -1.2181778420        2.0481957448        2.5475958259
  O         7.7393818944        5.5479919236        2.4013164945
  O         6.4370228039        3.3963566149        2.5436874048
  P         6.2762733917        4.9302163268        2.4377480302
 Ca         3.5474191831        6.0826367237        2.5477318673
  O         3.9617200335        4.2213683150        6.0582206827
  O         1.4486443118        4.2910431972        5.8876866938
  P         2.7007780967        5.1889411072        6.0046536172
 Ca         7.0215070200       -0.0322383350        5.9495379098
  O        -0.9245452860        9.4814976195        6.0584164014
  O         0.2717168630        7.2704527221        5.8883992113
  P        -1.1324364104        7.9058121589        6.0036971026
 Ca         5.9411750139        6.0975205338        5.9482299815
  O        15.8109762727        2.6195840341        6.0580510826
  O        -1.7202634376        4.7614250754        5.8874239805
  P        -1.5686876140        3.2282201143        6.0050014365
 Ca         1.1736072000        2.0977965182        5.9498418349
 Ca        -0.0001615220        5.4409200560        1.0844580424
 Ca         4.7121381781        2.7206075766        4.0871467983
 Ca         4.7120981154        2.7203839467        7.4345819359
 Ca        -0.0002142713        5.4411505544        4.3994220193
  O         0.0000663834       -0.0003531538        9.7377406057
  H        -0.0006835984        0.0030113796        8.6946236232
  O         0.0028351528       -0.0347482500        5.1999607221
  H        -0.0018296861        0.0248093298        4.1851919098
  O        -0.0023826487        0.0237449875        6.6381500933
  H         0.0017794692       -0.0102499292        7.8597739609
  O        -0.0000234320        0.0003995793        2.2025174268
  H         0.0004075196       -0.0040201532        3.1804338941
  O        11.3213550592        2.0212002279        1.2528368735
  O        16.1492562770        0.6323279857        1.2529648878
  O        14.9375504785        5.5077493182        1.2529095517
  O        12.1295620537        6.0417567713        4.6910499789
  O         7.5535750147        7.4830752155        4.6905151208
  O         8.5909990557        2.7985799205        4.6908088955
  O        12.2149304725        6.1398455780        7.1870189585
  O         7.4211766043        7.5096871752        7.1866083762
  O         8.6339117408        2.6737544450        7.1868316307
  O        11.4231408938        2.1136782253        3.7498570620
  O        16.0179954011        0.6745259704        3.7500037231
  O        14.9668781406        5.3730746460        3.7498326560
  O        10.1739162719        3.9288866874        2.4013722889
  O        12.6881943000        3.8764444886        2.5438448262
  P        11.4401299638        2.9704224583        2.4378508759
 Ca         7.0942975697        8.1918591658        2.5484967167
  O        -3.7775591210       31.3307394303        2.4012850867
  O        13.8589236829        0.8888843574        2.5437819842
  P        15.2674665101        0.2608459745        2.4377660509
 Ca         8.2059842518        2.0481777388        2.5480512996
  O        -1.6845749471        5.5479629383        2.4012959802
  O        15.8610589350        3.3963600502        2.5437103268
  P        15.7002305926        4.9302420348        2.4377505041
 Ca        12.9714427694        6.0825890523        2.5476762587
  O        13.3857612270        4.2213904060        6.0582165376
  O        10.8726353835        4.2910893883        5.8875723220
  P        12.1247024217        5.1888765711        6.0047566279
 Ca        16.4456688716       -0.0326053999        5.9492062733
  O         8.4994432955        9.4814614009        6.0583610798
  O         9.6957022405        7.2704565496        5.8883338848
  P         8.2916025423        7.9057975937        6.0038118007
 Ca        15.3651973635        6.0975655283        5.9481334435
  O         6.3869609437        2.6195667635        6.0581728594
  O         7.7036799777        4.7614943338        5.8878469162
  P         7.8554342539        3.2281042130        6.0044123018
 Ca        10.5970746407        2.0968233112        5.9488029037
 Ca         9.4238510550        5.4408726493        1.0845452378
 Ca        14.1360464712        2.7205972897        4.0871264716
 Ca        14.1361038550        2.7203718553        7.4345461911
 Ca         9.4237507247        5.4409720876        4.3994405386
  O         9.4241607892        0.0002560003        9.7377539499
  H         9.4227823458       -0.0012758949        8.6946808332
  O         9.4340112426        0.0080448236        5.2000573632
  H         9.4165720897       -0.0054925190        4.1848638875
  O         9.4167248181       -0.0061884096        6.6384485191
  H         9.4279603442        0.0038642808        7.8599764060
  O         9.4238782593       -0.0001015532        2.2025266171
  H         9.4253144940        0.0007988179        3.1803341887
  O        -2.8144222255       10.1824126136        1.2527669346
  O         2.0132052991        8.7934801413        1.2529764451
  O         0.8016461472       13.6691513049        1.2528682092
  O        -2.0077467240       14.2014174119        4.6905777434
  O        -6.5850764566       15.6455689957        4.6910540718
  O        -5.5448439772       10.9587811788        4.6910946222
  O        -1.9202931976       14.3023904953        7.1867370770
  O        -6.7124654165       15.6699575783        7.1871796840
  O        -5.5021576871       10.8364830743        7.1872564923
  O        -2.7127993818       10.2751474778        3.7498359220
  O         1.8822593791        8.8358630117        3.7502051141
  O         0.8309986661       13.5348848710        3.7500185807
  O        -3.9620900170       12.0900387693        2.4013585633
  O        -1.4477295211       12.0377933393        2.5437370882
  P        -2.6957517232       11.1315662703        2.4377874012
 Ca        -7.0413611389       16.3534329413        2.5475418531
  O         0.9345855737        6.8463553739        2.4014602271
  O        -0.2769635667        9.0502818061        2.5438293113
  P         1.1313901570        8.4221297012        2.4377258840
 Ca        -5.9299082582       10.2094241065        2.5476287809
  O         3.0274426388       13.7091532679        2.4014797758
  O         1.7249390764       11.5577344837        2.5437875980
  P         1.5643137078       13.0915227943        2.4376514827
 Ca        -1.1647033210       14.2440334183        2.5484099650
  O        -0.7499947885       12.3828778812        6.0583805435
  O        -3.2633564535       12.4522181656        5.8881568405
  P        -2.0112469102       13.3504975393        6.0039311534
 Ca         2.3082723561        8.1289371149        5.9502665126
  O        -5.6367206506       17.6432382516        6.0580765559
  O        -4.4404890092       15.4316820226        5.8874291764
  P        -5.8439255977       16.0671375012        6.0048927413
 Ca         1.2295671298       14.2574028687        5.9498225682
  O        11.0990111588       10.7806789951        6.0580883685
  O        -6.4324383252       12.9227749709        5.8875118040
  P        -6.2806361052       11.3896631988        6.0049485499
 Ca        -3.5386352339       10.2574463779        5.9490215949
 Ca        -4.7120160463       13.6021091616        1.0848230102
 Ca        -0.0001166456       10.8817732674        4.0872383054
 Ca         0.0001110233       10.8817206704        7.4345845364
 Ca        -4.7118964097       13.6021068991        4.3995087846
  O        14.1368036215        8.1614540036        9.7377347600
  H        14.1309739562        8.1628728615        8.6945215998
  O        14.1955345857        8.1469350357        5.1993872761
  H        14.0977499401        8.1688029440        4.1858221001
  O        14.0957014249        8.1747899409        6.6379011338
  H        14.1522598688        8.1525146188        7.8592740826
  O        14.1353895056        8.1617316286        2.2024815405
  H        14.1422570466        8.1593850491        3.1805380287
  O         6.6095659986       10.1823747939        1.2527888082
  O        11.4371941920        8.7934611636        1.2529593052
  O        10.2257184466       13.6691165265        1.2528206599
  O         7.4152906001       14.2008473884        4.6903044793
  O         2.8379767558       15.6455728515        4.6912866368
  O         3.8791345699       10.9589453038        4.6910762083
  O         7.5045096043       14.3027593682        7.1864721724
  O         2.7121982483       15.6698168004        7.1874108292
  O         3.9217946011       10.8364235408        7.1872205176
  O         6.7111361119       10.2750964385        3.7498788133
  O        11.3063262080        8.8358276303        3.7502508624
  O        10.2551083479       13.5344843378        3.7497446559
  O         5.4618604058       12.0900371264        2.4013261133
  O         7.9762191654       12.0377338891        2.5437232444
  P         6.7282838293       11.1315988572        2.4377937885
 Ca         2.3827731923       16.3536862670        2.5473031803
  O        10.3586021571        6.8463746648        2.4014836099
  O         9.1470318957        9.0502680585        2.5438437463
  P        10.5554092776        8.4221210166        2.4376802164
 Ca         3.4940960595       10.2093473331        2.5476337441
  O        -6.3964825652       13.7091186169        2.4014334133
  O        11.1490238968       11.5575884739        2.5437094331
  P        10.9882378674       13.0915031625        2.4377049382
 Ca         8.2595732286       14.2441189912        2.5487907356
  O         8.6738941073       12.3828527996        6.0584067574
  O         6.1606298321       12.4521933927        5.8883951794
  P         7.4128989455       13.3505365746        6.0034993064
 Ca        11.7318846314        8.1289317197        5.9504173451
  O         3.7872522343       17.6431619592        6.0580007979
  O         4.9834781003       15.4316541114        5.8871913631
  P         3.5801525190       16.0672350946        6.0052909876
 Ca        10.6526524127       14.2585437636        5.9487085569
  O         1.6750110476       10.7807803461        6.0580737495
  O         2.9915423331       12.9227652091        5.8876004074
  P         3.1433713613       11.3895261472        6.0049245569
 Ca         5.8853829037       10.2575693025        5.9491803048
 Ca         4.7120824344       13.6020807631        1.0847354804
 Ca         9.4239446374       10.8819446286        4.0871944180
 Ca         9.4240125261       10.8818318779        7.4344222221
 Ca         4.7123869592       13.6020146365        4.3994987584
  O         4.7126961628        8.1614285431        9.7377321523
  H         4.7077261595        8.1630496441        8.6944705350
  O         4.7591514069        8.1456428067        5.1993235295
  H         4.6804940229        8.1697924128        4.1855324478
  O         4.6798101647        8.1754748425        6.6382575294
  H         4.7256005527        8.1521032834        7.8593523721
  O         4.7114760531        8.1617507795        2.2025084538
  H         4.7171714797        8.1592479734        3.1804396057
  O        -7.5267579346       18.3442102510        1.2528533081
  O        -2.6987439051       16.9550698614        1.2528091230
  O        -3.9104197003       21.8306487333        1.2528857394
  O        -6.7194910857       22.3630163454        4.6907381928
  O       -11.2958047088       23.8065566732        4.6907692088
  O       -10.2562330278       19.1199506212        4.6911908335
  O        -6.6320362915       22.4633725675        7.1867565147
  O       -11.4256768835       23.8317058803        7.1868537449
  O       -10.2143000541       18.9974835370        7.1870519270
  O        -7.4253515433       18.4361552410        3.7503022405
  O        -2.8304164495       16.9974722810        3.7496990514
  O        -3.8810367873       21.6963481756        3.7499097714
  O        -8.6740628365       20.2518206878        2.4015142591
  O        -6.1597879517       20.1990341499        2.5439541892
  P        -7.4080058982       19.2934287670        2.4376686640
 Ca       -11.7534578218       24.5147960179        2.5480416178
  O        -3.7776120249       15.0079529958        2.4012687825
  O        -4.9892478327       17.2117855162        2.5437481296
  P        -3.5804702077       16.5837983463        2.4377301442
 Ca       -10.6422384893       18.3706670843        2.5475925615
  O        -1.6846644664       21.8709233967        2.4013806273
  O        -2.9869120077       19.7192876375        2.5437852649
  P        -3.1477227806       21.2530249617        2.4376086924
 Ca        -5.8766714642       22.4057739645        2.5481918483
  O        -5.4623608218       20.5438613024        6.0582173152
  O        -7.9753549000       20.6136944772        5.8881916209
  P        -6.7230791488       21.5119156489        6.0040917916
 Ca        -2.4015764142       16.2904998837        5.9476427278
  O       -10.3486868491       25.8045046480        6.0582776524
  O        -9.1523298814       23.5932151099        5.8878382980
  P       -10.5560532497       24.2284923585        6.0044159217
 Ca        -3.4825174157       22.4192904626        5.9498722718
  O         6.3871343855       18.9420331762        6.0581151690
  O       -11.1444151438       21.0841259093        5.8873691237
  P       -10.9926847136       19.5510952683        6.0050386244
 Ca        -8.2499987296       18.4217998349        5.9505999801
 Ca        -9.4242197750       21.7640770218        1.0846174993
 Ca        -4.7116664179       19.0432211618        4.0871496419
 Ca        -4.7119261135       19.0432092645        7.4344245429
 Ca        -9.4241485820       21.7641236761        4.3995076347
  O        -9.4245544812       16.3222167711        9.7377165744
  H        -9.4204061885       16.3271001131        8.6946662897
  O        -9.4681854025       16.2625618180        5.2002921589
  H        -9.3966332013       16.3606396544        4.1860780712
  O        -9.3938544971       16.3619318880        6.6369752693
  H        -9.4359223843       16.3092675330        7.8593125161
  O        -9.4235682870       16.3234336491        2.2023616388
  H        -9.4282683831       16.3169547388        3.1807433783
  O         1.8972265124       18.3441667942        1.2528438953
  O         6.7252255159       16.9551054106        1.2528433802
  O         5.5136429805       21.8306463484        1.2528055608
  O         2.7038261567       22.3628699685        4.6906000505
  O        -1.8734649089       23.8068034697        4.6911812780
  O        -0.8327072766       19.1219273199        4.6907665891
  O         2.7926105340       22.4635562188        7.1866215083
  O        -2.0002439738       23.8312555000        7.1872262607
  O        -0.7900873300       18.9957667395        7.1866969921
  O         1.9988296156       18.4362222538        3.7501430107
  O         6.5937620124       16.9974751217        3.7498685090
  O         5.5430319581       21.6958881211        3.7495795058
  O         0.7499233323       20.2518803232        2.4013923044
  O         3.2642117552       20.1990475914        2.5438935514
  P         2.0160436851       19.2934195520        2.4377214347
 Ca        -2.3293721890       24.5150443053        2.5474904636
  O         5.6463121230       15.0079776049        2.4012543324
  O         4.4347975422       17.2117351314        2.5438093289
  P         5.8435842176       16.5837731508        2.4377153811
 Ca        -1.2181035659       18.3705792438        2.5482080506
  O       -11.1086235817       21.8708604937        2.4013444361
  O         6.4371947138       19.7191344570        2.5437287779
  P         6.2761966503       21.2530216283        2.4376497802
 Ca         3.5476078387       22.4057194077        2.5484764151
  O         3.9615911146       20.5438125383        6.0582767880
  O         1.4486309667       20.6137124901        5.8883127901
  P         2.7010146970       21.5118410525        6.0037913991
 Ca         7.0223890308       16.2900289733        5.9480954177
  O        -0.9246235215       25.8044431067        6.0581099132
  O         0.2716040667       23.5932658241        5.8873873346
  P        -1.1319329815       24.2286204539        6.0051550028
 Ca         5.9406532673       22.4205030046        5.9482047160
  O        -3.0368453366       18.9420816163        6.0583196307
  O        -1.7204836553       21.0842239627        5.8880561955
  P        -1.5685599313       19.5507435779        6.0042162050
 Ca         1.1732525832       18.4209060204        5.9494759091
 Ca        -0.0001866692       21.7640299259        1.0845100057
 Ca         4.7123625593       19.0433841796        4.0870872084
 Ca         4.7122718140       19.0431361198        7.4342316826
 Ca         0.0000199543       21.7638090203        4.3994829151
  O        -0.0007718684       16.3229209689        9.7378884197
  H         0.0054271169       16.3225400168        8.6949975711
  O        -0.0621511217       16.3229546759        5.2006980286
  H         0.0390163281       16.3238383612        4.1858507607
  O         0.0431592098       16.3215385240        6.6373434573
  H        -0.0180644537       16.3249131012        7.8594243981
  O         0.0006389835       16.3228462371        2.2024830617
  H        -0.0061070676       16.3228270622        3.1807251292
  O       -12.2384725581       26.5052736475        1.2529275622
  O        -7.4108514979       25.1163100469        1.2528527612
  O        -8.6224377679       29.9919897874        1.2529176760
  O       -11.4307160265       30.5255166656        4.6909717437
  O       -16.0076776187       31.9678081261        4.6907667855
  O       -14.9683687736       27.2810238330        4.6912125503
  O       -11.3453668266       30.6242038268        7.1870959419
  O       -16.1376102408       31.9934167190        7.1868168911
  O       -14.9263781514       27.1596521052        7.1872233231
  O       -12.1371760724       26.5976774681        3.7502194821
  O        -7.5423567585       25.1588351505        3.7497217918
  O        -8.5931240699       29.8575471738        3.7499640262
  O       -13.3860917518       28.4129643982        2.4014007688
  O       -10.8718650583       28.3605732261        2.5438851634
  P       -12.1198814417       27.4545880064        2.4377293027
 Ca       -16.4654656314       32.6763296567        2.5479566348
  O        -8.4895013955       23.1692228640        2.4014406762
  O        -9.7012408010       25.3731975618        2.5437322555
  P        -8.2925187479       24.7451616768        2.4378491514
 Ca       -15.3542328960       26.5322816894        2.5474219719
  O        -6.3965520918       30.0320650933        2.4013559355
  O        -7.6990331498       27.8806450721        2.5437395057
  P        -7.8596334155       29.4143575359        2.4377647141
 Ca       -10.5886395818       30.5668768146        2.5478117736
  O       -10.1741992452       28.7056986526        6.0581298817
  O       -12.6873493865       28.7751477736        5.8876974568
  P       -11.4352033674       29.6732724199        6.0046359133
 Ca        -7.1135850701       24.4522430507        5.9482149889
  O         3.7873387416        1.3203551936        6.0581280607
  O       -13.8643214979       31.7545851140        5.8878779460
  P       -15.2681340598       32.3901165407        6.0042680051
 Ca        -8.1943838679       30.5815523574        5.9491604732
  O         1.6749978818       27.1036457255        6.0580144744
  O       -15.8563421470       29.2456476237        5.8872508801
  P       -15.7047621154       27.7125394807        6.0052394933
 Ca       -12.9620921124       26.5823398153        5.9503515071
 Ca       -14.1360911138       29.9251646154        1.0845246410
 Ca        -9.4238014878       27.2048113425        4.0871941468
 Ca        -9.4239630516       27.2049023166        7.4344337639
 Ca       -14.1361076503       29.9253925789        4.3994388869
  O         4.7119842696       24.4836891852        9.7377309325
  H         4.7119083246       24.4888762949        8.6946153625
  O         4.7088407554       24.4260975891        5.2003066924
  H         4.7142340914       24.5210455480        4.1856670214
  O         4.7134394103       24.5257210875        6.6374204699
  H         4.7121018591       24.4661760153        7.8595366550
  O         4.7120132798       24.4849335311        2.2024331850
  H         4.7117242342       24.4778295343        3.1805786045
  O        -2.8144542554       26.5052249652        1.2529288055
  O         2.0131678633       25.1163630513        1.2529224244
  O         0.8016319938       29.9919732251        1.2528875725
  O        -2.0077353658       30.5246931501        4.6906557032
  O        -6.5837281041       31.9676020800        4.6907833185
  O        -5.5448489524       27.2833985488        4.6907143720
  O        -1.9203107708       30.6248794442        7.1867866400
  O        -6.7136102439       31.9936146590        7.1868096096
  O        -5.5022547522       27.1575782361        7.1867285773
  O        -2.7130003889       26.5976559802        3.7501126522
  O         1.8820254093       25.1588164071        3.7500123033
  O         0.8309971370       29.8572674796        3.7497878926
  O        -3.9620494030       28.4129773364        2.4013264786
  O        -1.4478232061       28.3605446903        2.5438445377
  P        -2.6958652698       27.4546005332        2.4377843180
 Ca        -7.0414627996       32.6764934957        2.5480602005
  O         0.9344552865       23.1692934515        2.4014532833
  O        -0.2770809549       25.3731509309        2.5438529980
  P         1.1314959292       24.7450737855        2.4377983183
 Ca        -5.9301180853       26.5320657289        2.5482618414
  O       -15.8204941389       30.0320362238        2.4013668532
  O         1.7250768510       27.8805159080        2.5437278007
  P         1.5642923306       29.4144089664        2.4377891317
 Ca        -1.1645456331       30.5669827436        2.5482928618
  O        -0.7501553814       28.7056774837        6.0582884920
  O        -3.2633152230       28.7751355660        5.8880923716
  P        -2.0111442697       29.6733313943        6.0040560783
 Ca         2.3096414192       24.4516267966        5.9491120506
  O        13.2113757884        1.3203499479        6.0581274116
  O        -4.4403403083       31.7545958887        5.8878973992
  P        -5.8441018421       32.3901817410        6.0042265609
 Ca         1.2289367557       30.5819467106        5.9484134730
  O        -7.7490088098       27.1036969321        6.0582320800
  O        -6.4324717563       29.2456888190        5.8880246867
  P        -6.2806503711       27.7122551784        6.0041812690
 Ca        -3.5389731777       26.5817467842        5.9494982637
 Ca        -4.7120395076       29.9251374011        1.0845641644
 Ca         0.0000889309       27.2049964585        4.0872105014
 Ca         0.0000277509       27.2048118984        7.4345091353
 Ca        -4.7120407748       29.9251952284        4.3994820343
  O        -4.7125897031       24.4844871348        9.7377517878
  H        -4.7078790788       24.4836227590        8.6945411055
  O        -4.7564667432       24.4870926586        5.1995350067
  H        -4.6821107788       24.4814301044        4.1854091520
  O        -4.6813621077       24.4834635927        6.6382395177
  H        -4.7254382072       24.4835401864        7.8594843388
  O        -4.7115032287       24.4842787245        2.2025057686
  H        -4.7166441891       24.4841802816        3.1804388612
  O         0.4001427806       15.1984398549       16.0688986370
  C         0.0944772629       16.3222258750       16.0660276701
  O        -0.2062854586       17.4069212109       16.0667673953
     387
 i =       10, E =     -6918.5624378350
  O         1.9000056683        2.0243021695        1.2516302887
  O         6.7211688687        0.6331540349        1.2517099598
  O         5.5149891018        5.5036810564        1.2517876251
  O         2.7052497152        6.0509265988        4.6833512143
  O        -1.8755795494        7.4777206366        4.6820623230
  O        -0.8243824201        2.7919433112        4.6836050128
  O         2.7881309398        6.1372623199        7.1843491709
  O        -2.0012562720        7.5095207318        7.1833660157
  O        -0.7912365953        2.6794972033        7.1846964701
  O         1.9994683044        2.1036769344        3.7557640446
  O         6.6021060198        0.6797651198        3.7556380608
  O         5.5340599128        5.3772193776        3.7553273977
  O         0.7309617304        3.9243161772        2.4047869686
  O         3.2539015150        3.8637377126        2.5305435906
  P         2.0080717422        2.9626442110        2.4329187000
 Ca        -2.3357714494        8.1943347535        2.5428698505
  O       -13.1882187845       31.3165299944        2.4046525590
  O         4.4508978560        0.8862721784        2.5303733151
  P         5.8542680443        0.2577395535        2.4329204749
 Ca        -1.2175457151        2.0421273083        2.5409684210
  O         7.7450891903        5.5665948934        2.4045990406
  O         6.4312422712        3.4112202879        2.5303090071
  P         6.2734380472        4.9413631646        2.4326759374
 Ca         3.5525673320        6.0862688247        2.5412739313
  O         3.9791562246        4.2256591315        6.0586060915
  O         1.4560039731        4.2971103748        5.9038573439
  P         2.7084613136        5.1964421112        6.0098096007
 Ca         7.0476746105       -0.0333240856        5.9438053129
  O        -0.9367432776        9.4945465627        6.0588914409
  O         0.2626647667        7.2737033157        5.9053395526
  P        -1.1433401238        7.9087700639        6.0082305734
 Ca         5.9287651653        6.1215977941        5.9414332730
  O        15.8059282578        2.6022570318        6.0584381213
  O        -1.7185820641        4.7520451526        5.9034317552
  P        -1.5660359271        3.2178252890        6.0102366772
 Ca         1.1599677679        2.0763281945        5.9445896030
 Ca        -0.0002474240        5.4409648096        1.0660717295
 Ca         4.7122156732        2.7206658848        4.0721463575
 Ca         4.7121426519        2.7204373858        7.4442660765
 Ca        -0.0003562924        5.4412745046        4.4091360600
  O         0.0000554659       -0.0006030114        9.7615893079
  H        -0.0010159031        0.0051551144        8.7832279362
  O         0.0056336743       -0.0706131769        5.1832648419
  H        -0.0034300605        0.0468196643        4.2156261212
  O        -0.0041774792        0.0422962182        6.6450112596
  H         0.0028214850       -0.0169017854        7.8513844477
  O        -0.0000364264        0.0006417688        2.1930791601
  H         0.0006071093       -0.0064262439        3.1145188067
  O        11.3239513238        2.0243085635        1.2515522835
  O        16.1451802436        0.6332240407        1.2517436370
  O        14.9390233389        5.5036505784        1.2517842867
  O        12.1297139561        6.0514888778        4.6834560827
  O         7.5477684576        7.4779327713        4.6822710086
  O         8.5987364888        2.7945492130        4.6829190161
  O        12.2117957618        6.1370141854        7.1843992237
  O         7.4232405650        7.5092391969        7.1836177489
  O         8.6330299753        2.6772973324        7.1840426342
  O        11.4239154063        2.1039825325        3.7553353385
  O        16.0262049396        0.6799212093        3.7556736016
  O        14.9580817608        5.3771934484        3.7553297779
  O        10.1549706293        3.9243854719        2.4046886147
  O        12.6779904607        3.8638880066        2.5304485140
  P        11.4321382946        2.9625896641        2.4329961362
 Ca         7.0883964181        8.1943207860        2.5427244426
  O        -3.7642666505       31.3166246063        2.4045962813
  O        13.8749345222        0.8862741434        2.5303924186
  P        15.2782732808        0.2576977048        2.4328796703
 Ca         8.2068019803        2.0421085642        2.5419058270
  O        -1.6788334291        5.5665277548        2.4045713872
  O        15.8553131071        3.4112354549        2.5303596698
  P        15.6973719701        4.9414020052        2.4326679495
 Ca        12.9765873714        6.0862129797        2.5411139360
  O        13.4032523696        4.2257014080        6.0585858021
  O        10.8800010193        4.2971868772        5.9036119503
  P        12.1322970615        5.1962895573        6.0100749110
 Ca        16.4719832103       -0.0341197810        5.9431752072
  O         8.4872067168        9.4945062675        6.0588403389
  O         9.6865955457        7.2737201399        5.9052348644
  P         8.2808262784        7.9087563571        6.0083052453
 Ca        15.3528672980        6.1216029510        5.9412946900
  O         6.3818638462        2.6022409251        6.0586336038
  O         7.7053015594        4.7521831877        5.9042555520
  P         7.8583105026        3.2174515620        6.0093331854
 Ca        10.5827219306        2.0740430274        5.9425306924
 Ca         9.4238061478        5.4408754702        1.0661529111
 Ca        14.1360049276        2.7206530314        4.0721109799
 Ca        14.1360992201        2.7204294953        7.4442092328
 Ca         9.4236086782        5.4409286089        4.4091595591
  O         9.4242130227        0.0001870615        9.7616969839
  H         9.4219797357       -0.0020022391        8.7833182177
  O         9.4424734702        0.0147766851        5.1830283466
  H         9.4100136861       -0.0104979823        4.2146233168
  O         9.4124714437       -0.0098460128        6.6462753586
  H         9.4303805547        0.0061602117        7.8518001244
  O         9.4238070281       -0.0001308366        2.1930753088
  H         9.4260675014        0.0013276840        3.1143191557
  O        -2.8117451683       10.1855926766        1.2515732271
  O         2.0091197320        8.7943940348        1.2517816235
  O         0.8031613752       13.6651020094        1.2517604114
  O        -2.0088494468       14.2091392125        4.6823367911
  O        -6.5938355349       15.6416658411        4.6834194170
  O        -5.5369515430       10.9533332668        4.6835470610
  O        -1.9223196056       14.3004955468        7.1836108781
  O        -6.7082669879       15.6682918826        7.1848585748
  O        -5.5029910207       10.8413733365        7.1849841639
  O        -2.7119866487       10.2655457030        3.7553576213
  O         1.8907411305        8.8411216261        3.7561809167
  O         0.8222823173       13.5393779137        3.7557386292
  O        -3.9810853251       12.0855271782        2.4047122254
  O        -1.4578220582       12.0253102039        2.5303565230
  P        -2.7037503922       11.1237748933        2.4327480586
 Ca        -7.0468909585       16.3554618377        2.5406976964
  O         0.9479686431        6.8322707163        2.4048955204
  O        -0.2608104015        9.0476924053        2.5304824671
  P         1.1421189563        8.4189137928        2.4327418766
 Ca        -5.9289910858       10.2035349193        2.5408431331
  O         3.0331082706       13.7278016385        2.4048937088
  O         1.7191610862       11.5727094019        2.5304769172
  P         1.5615005080       13.1027121384        2.4325961996
 Ca        -1.1599207621       14.2479572959        2.5424811487
  O        -0.7324100222       12.3871973889        6.0588808070
  O        -3.2560711967       12.4581783711        5.9047954395
  P        -2.0035213791       13.3585909345        6.0088606135
 Ca         2.3327765503        8.1274701578        5.9452776241
  O        -5.6492539472       17.6562222487        6.0584154649
  O        -4.4495911467       15.4350193213        5.9034376406
  P        -5.8539855149       16.0699287218        6.0102183239
 Ca         1.2174626494       14.2796766763        5.9447414435
  O        11.0939539312       10.7632288000        6.0584794823
  O        -6.4307502332       12.9133645305        5.9035570721
  P        -6.2779418527       11.3793141498        6.0102228102
 Ca        -3.5525712540       10.2346032886        5.9429750183
 Ca        -4.7119842833       13.6021719664        1.0664231575
 Ca        -0.0003328726       10.8818430109        4.0721887441
 Ca         0.0000359320       10.8817344615        7.4443302138
 Ca        -4.7116939332       13.6021750916        4.4092105166
  O        14.1370270360        8.1609775673        9.7613787830
  H        14.1274632709        8.1646780361        8.7830652461
  O        14.2627693069        8.1336524248        5.1844919792
  H        14.0629643803        8.1762643119        4.2172279354
  O        14.0566579028        8.1861932148        6.6421584506
  H        14.1631646173        8.1470794680        7.8503202987
  O        14.1350979296        8.1616165685        2.1930785102
  H        14.1458899838        8.1585634339        3.1147475038
  O         6.6122087573       10.1855251817        1.2515854161
  O        11.4330654076        8.7943618941        1.2517870484
  O        10.2272825560       13.6650508747        1.2517184205
  O         7.4131625421       14.2079889016        4.6817343941
  O         2.8283611326       15.6416271660        4.6838668885
  O         3.8870254210       10.9537141347        4.6835421362
  O         7.5033415260       14.3012970379        7.1830766408
  O         2.7172438289       15.6679064656        7.1852721000
  O         3.9209649652       10.8412121805        7.1849918828
  O         6.7118734085       10.2654656332        3.7554278776
  O        11.3148773043        8.8410469052        3.7563070480
  O        10.2464421606       13.5385852463        3.7552069077
  O         5.4428140598       12.0855084977        2.4046725369
  O         7.9660461659       12.0252109366        2.5303257636
  P         6.7203490805       11.1238495644        2.4328021900
 Ca         2.3773733531       16.3560210633        2.5402401598
  O        10.3719749525        6.8322923821        2.4049414977
  O         9.1631682276        9.0476828319        2.5305236192
  P        10.5662022678        8.4188919043        2.4326441894
 Ca         3.4949754311       10.2034002204        2.5409054432
  O        -6.3907700513       13.7277262876        2.4048043554
  O        11.1432785596       11.5724534600        2.5303694957
  P        10.9853712425       13.1026804588        2.4325477702
 Ca         8.2647378006       14.2481270801        2.5431756274
  O         8.6913180037       12.3871760208        6.0589117924
  O         6.1679010624       12.4582261555        5.9052349751
  P         7.4208311050       13.3585911081        6.0082482705
 Ca        11.7557669794        8.1274411053        5.9456937286
  O         3.7747720744       17.6560605298        6.0582594756
  O         4.9744163732       15.4349468306        5.9029484753
  P         3.5700303797       16.0702044905        6.0110147336
 Ca        10.6396638570       14.2819462970        5.9425529827
  O         1.6700014591       10.7634123751        6.0584579290
  O         2.9932591024       12.9133616244        5.9037380259
  P         3.1460211916       11.3790655936        6.0100978698
 Ca         5.8714580858       10.2347420621        5.9431744332
 Ca         4.7121984915       13.6021437558        1.0663300549
 Ca         9.4238492611       10.8821315042        4.0721184116
 Ca         9.4240289181       10.8818622537        7.4441412630
 Ca         4.7127673334       13.6020112438        4.4091679963
  O         4.7128179033        8.1609456757        9.7614361024
  H         4.7048891631        8.1649408671        8.7829574131
  O         4.8120867869        8.1296612290        5.1843097458
  H         4.6519280442        8.1782075629        4.2160113036
  O         4.6506522875        8.1873559220        6.6433680138
  H         4.7344976965        8.1464334104        7.8507750059
  O         4.7112232613        8.1616624326        2.1930875751
  H         4.7202050034        8.1583288428        3.1145808704
  O        -7.5241182994       18.3473318933        1.2516563046
  O        -2.7029051072       16.9559623668        1.2516221176
  O        -3.9090480493       21.8266284275        1.2516396617
  O        -6.7204527271       22.3709564446        4.6826325326
  O       -11.3031437224       23.8021730393        4.6828538431
  O       -10.2476578063       19.1143257914        4.6836338854
  O        -6.6341469159       22.4613067250        7.1838105255
  O       -11.4225445917       23.8305723724        7.1840905668
  O       -10.2154634757       19.0021547041        7.1843390156
  O        -7.4250724708       18.4259803479        3.7563922886
  O        -2.8226598899       17.0030435641        3.7550066484
  O        -3.8898053268       21.7007607089        3.7556291134
  O        -8.6929296153       20.2471646423        2.4049744900
  O        -6.1701327337       20.1863221894        2.5306779560
  P        -7.4160390615       19.2857765130        2.4326420621
 Ca       -11.7590565868       24.5169154841        2.5417642771
  O        -3.7644379416       14.9937179044        2.4045623878
  O        -4.9734101688       17.2092495709        2.5303509269
  P        -3.5695853860       16.5806834907        2.4326794323
 Ca       -10.6416514492       18.3643452990        2.5408845306
  O        -1.6789185098       21.8896198610        2.4047072256
  O        -2.9928888188       19.7344992549        2.5303841558
  P        -3.1503839288       21.2640775184        2.4327480026
 Ca        -5.8718702125       22.4096940423        2.5421741866
  O        -5.4449289854       20.5482883964        6.0586478054
  O        -7.9680679809       20.6197215169        5.9048489501
  P        -6.7152513842       21.5200598488        6.0090154115
 Ca        -2.3745935594       16.2895203914        5.9406703414
  O       -10.3611195441       25.8176287467        6.0587215990
  O        -9.1613920025       23.5964766389        5.9042548896
  P       -10.5664575183       24.2312917080        6.0093306377
 Ca        -3.4945653981       22.4418474947        5.9445537918
  O         6.3819698284       18.9247266366        6.0584040648
  O       -11.1426668936       21.0748433352        5.9032542719
  P       -10.9899553555       19.5404800370        6.0107410837
 Ca        -8.2628822537       18.4025660835        5.9462422964
 Ca        -9.4242743544       21.7641496486        1.0662397868
 Ca        -4.7115304548       19.0430948533        4.0721373919
 Ca        -4.7118741346       19.0431076150        7.4441537810
 Ca        -9.4241274888       21.7643470851        4.4092271359
  O        -9.4247490846       16.3219258452        9.7612801454
  H        -9.4178346092       16.3301636289        8.7832977520
  O        -9.5136895637       16.1959764445        5.1838464240
  H        -9.3719455988       16.3945938301        4.2198228984
  O        -9.3642685224       16.4024443692        6.6408118041
  H        -9.4441152513       16.2995975736        7.8499476503
  O        -9.4233549576       16.3237881163        2.1929488277
  H        -9.4308072420       16.3134449322        3.1151118194
  O         1.8998415111       18.3472355539        1.2515957747
  O         6.7210449781       16.9560213640        1.2516576921
  O         5.5150596792       21.8266207964        1.2515515150
  O         2.7021846975       22.3706975152        4.6822787817
  O        -1.8824468826       23.8026422553        4.6837639933
  O        -0.8247131137       19.1185422972        4.6827105437
  O         2.7911772538       22.4617034674        7.1833744871
  O        -1.9957187901       23.8295046567        7.1850097289
  O        -0.7911907929       18.9987279033        7.1834247933
  O         1.9993379814       18.4261555368        3.7559810486
  O         6.6017172027       17.0030330657        3.7553534700
  O         5.5342968810       21.6998435578        3.7549639210
  O         0.7310648999       20.2472740466        2.4047438138
  O         3.2538818958       20.1864079628        2.5305556133
  P         2.0080481896       19.2857599214        2.4328036938
 Ca        -2.3348850020       24.5174676928        2.5406660952
  O         5.6594392268       14.9937685245        2.4045610257
  O         4.4507013877       17.2091515531        2.5304501130
  P         5.8544678598       16.5806675359        2.4327235688
 Ca        -1.2173917757       18.3640978429        2.5422439788
  O       -11.1028185337       21.8894512129        2.4046168454
  O         6.4312973986       19.7341936137        2.5303255700
  P         6.2734716679       21.2641211020        2.4326793660
 Ca         3.5527601557       22.4095400412        2.5427568891
  O         3.9789864652       20.5481727095        6.0587013895
  O         1.4558955923       20.6197766846        5.9050393380
  P         2.7088942979       21.5199428572        6.0086717569
 Ca         7.0492123406       16.2885365161        5.9413268767
  O        -0.9369919824       25.8174868891        6.0584626382
  O         0.2624580062       23.5965346910        5.9033727217
  P        -1.1420514577       24.2315899887        6.0104774569
 Ca         5.9277695710       22.4442837087        5.9414689498
  O        -3.0420803546       18.9249094479        6.0587116745
  O        -1.7188466691       21.0751287128        5.9045941401
  P        -1.5655290992       19.5395577259        6.0094062459
 Ca         1.1590983848       18.3999972594        5.9440612295
 Ca        -0.0001734513       21.7640034671        1.0661594446
 Ca         4.7124778695       19.0434360508        4.0720356077
 Ca         4.7123454780       19.0431135346        7.4439473345
 Ca         0.0002147461       21.7636516482        4.4092100498
  O        -0.0010614516       16.3229096397        9.7616320644
  H         0.0092309317       16.3222490709        8.7835078611
  O        -0.1318114707       16.3230145893        5.1838641478
  H         0.0742168041       16.3243883372        4.2186878270
  O         0.0864139048       16.3205517947        6.6426806310
  H        -0.0303617765       16.3260612087        7.8503571265
  O         0.0009988884       16.3229076256        2.1930780281
  H        -0.0097942016       16.3227362932        3.1150399303
  O       -12.2358132457       26.5084491733        1.2517384662
  O        -7.4150046624       25.1171385623        1.2516371693
  O        -8.6210553223       29.9880089993        1.2517502539
  O       -11.4308287170       30.5345487381        4.6832237114
  O       -16.0148307877       31.9632971443        4.6827795787
  O       -14.9599486017       27.2750251307        4.6837689570
  O       -11.3485608352       30.6214508536        7.1844891888
  O       -16.1344391713       31.9924446397        7.1840774703
  O       -14.9274490726       27.1649505905        7.1849045690
  O       -12.1367832863       26.5877713333        3.7560887808
  O        -7.5345151570       25.1643337620        3.7551497379
  O        -8.6019642699       29.8619232174        3.7555421818
  O       -13.4050740065       28.4084204237        2.4047895279
  O       -10.8821150887       28.3479844389        2.5305744617
  P       -12.1279441199       27.4467841584        2.4327527853
 Ca       -16.4711209439       32.6786178023        2.5417928085
  O        -8.4762604485       23.1550320969        2.4047840830
  O        -9.6854065110       25.3706287403        2.5303012406
  P        -8.2816224709       24.7420995656        2.4328320753
 Ca       -15.3536253648       26.5262194887        2.5405455628
  O        -6.3909001020       30.0506860242        2.4046466394
  O        -7.7048865387       27.8957276171        2.5303529306
  P        -7.8623579150       29.4254078850        2.4328386400
 Ca       -10.5836938974       30.5704952051        2.5414569737
  O       -10.1568056663       28.7100412052        6.0585198659
  O       -12.6800840009       28.7811688436        5.9039425281
  P       -11.4274162773       29.6810591002        6.0098650292
 Ca        -7.0863471880       24.4513192759        5.9414136751
  O         3.7749518600        1.3333139704        6.0585650349
  O       -13.8732691000       31.7579334893        5.9043688811
  P       -15.2787200075       32.3929523204        6.0091688911
 Ca        -8.2065918535       30.6051508474        5.9431594444
  O         1.6699531982       27.0863095762        6.0583337074
  O       -15.8546004942       29.2362596822        5.9030406389
  P       -15.7021666063       27.7020924080        6.0108922617
 Ca       -12.9751715719       26.5618742255        5.9456388984
 Ca       -14.1361344358       29.9252198239        1.0661418275
 Ca        -9.4236531083       27.2046737193        4.0721934006
 Ca        -9.4239044687       27.2047794241        7.4441397457
 Ca       -14.1361393842       29.9255945022        4.4091735456
  O         4.7119744552       24.4831529772        9.7614194659
  H         4.7119008853       24.4927309693        8.7831580532
  O         4.7041076282       24.3628686406        5.1837490362
  H         4.7163963221       24.5546656913        4.2180025704
  O         4.7149686710       24.5645441396        6.6427543556
  H         4.7121382975       24.4541587765        7.8505993970
  O         4.7120147385       24.4852493467        2.1930319909
  H         4.7115539860       24.4742703487        3.1147965039
  O        -2.8117472047       26.5083575059        1.2517675362
  O         2.0090587102       25.1172681200        1.2516938474
  O         0.8031154462       29.9879567295        1.2517141202
  O        -2.0088225086       30.5329233102        4.6825714347
  O        -6.5909268732       31.9628805720        4.6828349037
  O        -5.5369536205       27.2799089462        4.6827426196
  O        -1.9224171035       30.6227448317        7.1838674517
  O        -6.7104706736       31.9928004984        7.1840973219
  O        -5.5032221086       27.1606767496        7.1838709931
  O        -2.7123803088       26.5877335028        3.7558704882
  O         1.8902618966       25.1642923050        3.7557233883
  O         0.8222726028       29.8613780703        3.7551891567
  O        -3.9809583851       28.4084298800        2.4046357768
  O        -1.4580086449       28.3479823658        2.5304988662
  P        -2.7039582547       27.4467774315        2.4328139953
 Ca        -7.0470932177       32.6789763102        2.5420165106
  O         0.9476842248       23.1552091045        2.4048273941
  O        -0.2610921444       25.3705349953        2.5305053988
  P         1.1423309732       24.7419299676        2.4328749401
 Ca        -5.9294028887       26.5257042467        2.5423279155
  O       -15.8147460317       30.0506087547        2.4046633399
  O         1.7193096367       27.8954828369        2.5303562905
  P         1.5614480405       29.4255274515        2.4327756206
 Ca        -1.1594839474       30.5707479272        2.5424183369
  O        -0.7327299051       28.7099837035        6.0587398654
  O        -3.2560034233       28.7811829389        5.9046935176
  P        -2.0033145096       29.6811471826        6.0088809406
 Ca         2.3360073182       24.4498660764        5.9429983909
  O        13.1990349285        1.3332774647        6.0585594135
  O        -4.4493009657       31.7579438934        5.9044102098
  P        -5.8546264257       32.3930987601        6.0090228200
 Ca         1.2160017705       30.6059524118        5.9418483345
  O        -7.7540991711       27.0864613618        6.0586607220
  O        -6.4307889862       29.2363600710        5.9045622067
  P        -6.2778979766       27.7014916717        6.0089471563
 Ca        -3.5533547482       26.5602592176        5.9438456183
 Ca        -4.7120503569       29.9251608611        1.0662076038
 Ca         0.0001059134       27.2050598184        4.0721993261
 Ca         0.0000378612       27.2047613324        7.4442201049
 Ca        -4.7120371949       29.9251914931        4.4092348073
  O        -4.7127775535       24.4842163462        9.7615227669
  H        -4.7050901669       24.4837925295        8.7830480113
  O        -4.8057693837       24.4898612543        5.1838270468
  H        -4.6552467679       24.4793992528        4.2158755435
  O        -4.6544100270       24.4823425833        6.6440396348
  H        -4.7342775796       24.4833074741        7.8510118220
  O        -4.7112182379       24.4842414749        2.1930706327
  H        -4.7195009657       24.4844030702        3.1145460525
  O         0.3942928918       15.2249713942       16.0683270706
  C         0.1081881515       16.2650289214       16.0643403833
  O        -0.2157085677       17.4397945747       16.0653650126
     387
 i =       11, E =     -6918.7240252702
  O         1.8983177550        2.0226116544        1.2483753320
  O         6.7234284256        0.6326584860        1.2484866819
  O         5.5143264669        5.5057913965        1.2486211499
  O         2.7050217760        6.0575597548        4.6790018714
  O        -1.8776487644        7.4735306652        4.6766914569
  O        -0.8186201578        2.7879918803        4.6794436292
  O         2.7881881546        6.1403270791        7.1837709982
  O        -2.0065621466        7.5094584267        7.1819014397
  O        -0.7886574789        2.6788359202        7.1845247406
  O         1.9994662559        2.0958166811        3.7581565385
  O         6.6087027196        0.6836490106        3.7578980966
  O         5.5272490781        5.3806980285        3.7574371413
  O         0.7109441255        3.9144770000        2.4059200545
  O         3.2390527240        3.8532357431        2.5175903300
  P         1.9946290705        2.9561762554        2.4280216597
 Ca        -2.3410785619        8.1999222325        2.5372350760
  O       -13.1698021742       31.3040859375        2.4057325704
  O         4.4673466392        0.8786812575        2.5173652894
  P         5.8666015395        0.2492928779        2.4280402619
 Ca        -1.2200445901        2.0352086435        2.5341099920
  O         7.7466897874        5.5887706487        2.4056272640
  O         6.4295710201        3.4291799259        2.5173187104
  P         6.2746260446        4.9561687664        2.4275963320
 Ca         3.5600453137        6.0875171619        2.5346612023
  O         3.9977692735        4.2350627817        6.0620786126
  O         1.4694350597        4.3024638346        5.9183372971
  P         2.7203499386        5.2003223870        6.0114486548
 Ca         7.0751662751       -0.0372601661        5.9372819720
  O        -0.9539114085        9.5060569568        6.0624586045
  O         0.2511060424        7.2825544738        5.9206615236
  P        -1.1533886408        7.9171274318        6.0093982146
 Ca         5.9183707432        6.1479791706        5.9337032039
  O        15.8047357116        2.5813904353        6.0619238214
  O        -1.7205880122        4.7377572007        5.9177411957
  P        -1.5686883637        3.2056231247        6.0117976092
 Ca         1.1434651367        2.0555945802        5.9387361022
 Ca        -0.0003499412        5.4409554074        1.0571297243
 Ca         4.7123273298        2.7207054213        4.0507020908
 Ca         4.7122107692        2.7205075910        7.4461571444
 Ca        -0.0005151804        5.4413516285        4.4252881827
  O         0.0000901022       -0.0010770891        9.8329912638
  H        -0.0014629183        0.0079361228        8.8799049807
  O         0.0099045494       -0.1217665984        5.1609581630
  H        -0.0055984365        0.0779020091        4.2323904113
  O        -0.0070612899        0.0699089655        6.6624478302
  H         0.0042265858       -0.0255774280        7.8616045991
  O        -0.0000749826        0.0012403110        2.1329496759
  H         0.0008815493       -0.0096976107        3.0410933210
  O        11.3222448688        2.0226605763        1.2483017186
  O        16.1474784013        0.6327954827        1.2485417732
  O        14.9383880057        5.5057484500        1.2485912898
  O        12.1298650280        6.0585473609        4.6791820878
  O         7.5453142241        7.4739101168        4.6770963080
  O         8.6038717326        2.7924327590        4.6783966288
  O        12.2115976763        6.1399222789        7.1839099016
  O         7.4183347170        7.5089704913        7.1823818296
  O         8.6356531682        2.6752105866        7.1834249706
  O        11.4242708077        2.0963986558        3.7573991585
  O        16.0329297268        0.6839173279        3.7580111176
  O        14.9512567525        5.3806908711        3.7574709921
  O        10.1349581051        3.9146394281        2.4057510687
  O        12.6632467539        3.8535380767        2.5174557723
  P        11.4187135525        2.9559850475        2.4280704237
 Ca         7.0831867640        8.1998429179        2.5370314382
  O        -3.7458307846       31.3042810880        2.4056494891
  O        13.8914673731        0.8786840253        2.5174041893
  P        15.2905237532        0.2491775119        2.4279556509
 Ca         8.2045955412        2.0351205602        2.5357376283
  O        -1.6772128622        5.5886529027        2.4055934459
  O        15.8536953166        3.4292027433        2.5174077236
  P        15.6985583258        4.9562253917        2.4275805431
 Ca        12.9840514646        6.0873910795        2.5343208033
  O        13.4219046180        4.2351927738        6.0620397678
  O        10.8934850486        4.3026695139        5.9179561171
  P        12.1440801901        5.1999192704        6.0118256086
 Ca        16.4995714959       -0.0386506651        5.9362864030
  O         8.4700204055        9.5060279519        6.0624189870
  O         9.6750577081        7.2825615393        5.9205345713
  P         8.2707614286        7.9170914729        6.0093667562
 Ca        15.3427275942        6.1477058335        5.9335680900
  O         6.3806200180        2.5813848275        6.0622262202
  O         7.7032533350        4.7379655085        5.9190676940
  P         7.8559335294        3.2049225930        6.0103045229
 Ca        10.5651570471        2.0513241204        5.9352820997
 Ca         9.4237348370        5.4407858787        1.0572033389
 Ca        14.1359427428        2.7206701370        4.0506361400
 Ca        14.1361033110        2.7204740650        7.4460809290
 Ca         9.4233960502        5.4407753284        4.4252912423
  O         9.4243506573        0.0002176948        9.8332591966
  H         9.4209538091       -0.0029525383        8.8800034650
  O         9.4547825659        0.0245805397        5.1613947781
  H         9.4007478527       -0.0175802868        4.2288444883
  O         9.4064451240       -0.0150000323        6.6654660101
  H         9.4334271111        0.0090630706        7.8624772523
  O         9.4236299672       -0.0002311767        2.1328535822
  H         9.4271000625        0.0020463500        3.0407950938
  O        -2.8133643018       10.1839488560        1.2483919566
  O         2.0114222833        8.7939912810        1.2485987000
  O         0.8025810934       13.6672619056        1.2485526628
  O        -2.0104997815       14.2134866083        4.6772572105
  O        -6.6002805429       15.6392620993        4.6790991074
  O        -5.5315640465       10.9491768944        4.6793218685
  O        -1.9209101205       14.3046999672        7.1824427189
  O        -6.7104069121       15.6661759743        7.1847268135
  O        -5.5002838502       10.8410871600        7.1850239661
  O        -2.7116442342       10.2580196816        3.7574879583
  O         1.8979115678        8.8449450443        3.7589152182
  O         0.8155753180       13.5433876004        3.7581471811
  O        -4.0011400686       12.0756845337        2.4058336716
  O        -1.4725139287       12.0149195650        2.5173630017
  P        -2.7171181896       11.1174352125        2.4276231119
 Ca        -7.0514753717       16.3604591124        2.5335063841
  O         0.9665176150        6.8200279827        2.4061179965
  O        -0.2441023697        9.0401456174        2.5175436532
  P         1.1542722105        8.4102591228        2.4277290399
 Ca        -5.9311239165       10.1969594072        2.5337393388
  O         3.0346636553       13.7500320168        2.4060968673
  O         1.7175220121       11.5907336114        2.5175637672
  P         1.5627080703       13.1176677748        2.4276267554
 Ca        -1.1529090415       14.2496982105        2.5365912302
  O        -0.7135852301       12.3965943363        6.0625199216
  O        -3.2426771333       12.4634343771        5.9198377320
  P        -1.9916886359       13.3631070938        6.0100240936
 Ca         2.3575197007        8.1229418108        5.9398296623
  O        -5.6668668159       17.6675882861        6.0618265034
  O        -4.4611653236       15.4438921061        5.9177434673
  P        -5.8629836529       16.0782409409        6.0119900485
 Ca         1.2073823089       14.3037660511        5.9390922631
  O        11.0927772656       10.7421972278        6.0619614728
  O        -6.4327724820       12.8990291107        5.9179125243
  P        -6.2805346885       11.3672254484        6.0118623405
 Ca        -3.5693532333       10.2122930608        5.9361910513
 Ca        -4.7119234992       13.6022477818        1.0574638577
 Ca        -0.0005959126       10.8819315506        4.0507256575
 Ca        -0.0000795891       10.8817396723        7.4462653144
 Ca        -4.7113849865       13.6022575538        4.4253451619
  O        14.1376646581        8.1604085345        9.8323815922
  H        14.1227950575        8.1668895035        8.8798425830
  O        14.3523313451        8.1151895914        5.1620316499
  H        14.0153936578        8.1861942689        4.2392898753
  O        14.0039486828        8.2007186962        6.6551020627
  H        14.1778311138        8.1399250274        7.8591947366
  O        14.1342671612        8.1616568616        2.1330870528
  H        14.1508409714        8.1574007136        3.0414836054
  O         6.6105672558       10.1838790488        1.2484010253
  O        11.4353523329        8.7939611420        1.2486171611
  O        10.2267495530       13.6671949628        1.2485411160
  O         7.4102042953       14.2116650840        4.6761391737
  O         2.8208652879       15.6391991078        4.6798392292
  O         3.8924245447       10.9498670998        4.6793213624
  O         7.5059334595       14.3060697288        7.1813831373
  O         2.7162213358       15.6653546885        7.1856929213
  O         3.9236390108       10.8408286137        7.1850181109
  O         6.7121513712       10.2579349430        3.7575621999
  O        11.3221905401        8.8448185509        3.7591753960
  O        10.2398039144       13.5420366940        3.7572970830
  O         5.4227230311       12.0756650713        2.4057835822
  O         7.9513223748       12.0148418164        2.5173162197
  P         6.7069661049       11.1174622583        2.4277539795
 Ca         2.3729228820       16.3614506674        2.5327346637
  O        10.3905424620        6.8200945279        2.4062110137
  O         9.1799350707        9.0401444227        2.5176289689
  P        10.5783235013        8.4101781826        2.4275581583
 Ca         3.4927798840       10.1967161787        2.5339021687
  O        -6.3892025038       13.7498881455        2.4059634413
  O        11.1416783454       11.5903305931        2.5174403403
  P        10.9865828410       13.1176309654        2.4273683966
 Ca         8.2722417474       14.2499375674        2.5376225241
  O         8.7099486039       12.3965968473        6.0625103923
  O         6.1813389440       12.4636927009        5.9204379487
  P         7.4329025561       13.3629817057        6.0095374878
 Ca        11.7794901466        8.1229094859        5.9405745072
  O         3.7572456058       17.6673014921        6.0616002729
  O         4.9628173020       15.4437962353        5.9170008715
  P         3.5610744245       16.0787998705        6.0130074308
 Ca        10.6287494271       14.3073435611        5.9356963802
  O         1.6688529588       10.7424829680        6.0619358617
  O         2.9912907745       12.8990819950        5.9181934553
  P         3.1434451246       11.3667747168        6.0117084385
 Ca         5.8545826740       10.2122320072        5.9364061343
 Ca         4.7123347964       13.6022035611        1.0573628280
 Ca         9.4237013553       10.8823350337        4.0506210771
 Ca         9.4240143284       10.8818835458        7.4460782744
 Ca         4.7132081270       13.6019550530        4.4252411967
  O         4.7132832970        8.1603634150        9.8325623090
  H         4.7011180569        8.1672631715        8.8796187475
  O         4.8841988540        8.1076539710        5.1622990918
  H         4.6120524602        8.1897524315        4.2353819783
  O         4.6093389784        8.2035831106        6.6581402693
  H         4.7462998441        8.1389530851        7.8603789043
  O         4.7105285760        8.1617587818        2.1329955848
  H         4.7243297618        8.1570386513        3.0412644608
  O        -7.5257904660       18.3455460613        1.2484756670
  O        -2.7007235032       16.9554740057        1.2484819209
  O        -3.9097290119       21.8287837295        1.2483978431
  O        -6.7219261321       22.3755826119        4.6777002776
  O       -11.3077094802       23.7991769410        4.6782093527
  O       -10.2414162790       19.1098481602        4.6794038542
  O        -6.6329096976       22.4652248800        7.1828809628
  O       -11.4261527013       23.8292817164        7.1833029551
  O       -10.2130528039       19.0014212466        7.1840307933
  O        -7.4255017556       18.4175160244        3.7593079893
  O        -2.8165784318       17.0071993331        3.7569178003
  O        -3.8965726725       21.7046537028        3.7579826896
  O        -8.7128211917       20.2370588880        2.4062402102
  O        -6.1851281912       20.1755227218        2.5178404420
  P        -7.4295251353       19.2797068684        2.4275284432
 Ca       -11.7638221145       24.5220269527        2.5353806045
  O        -3.7461688870       14.9812601885        2.4056117250
  O        -4.9571316184       17.2017089099        2.5173830301
  P        -3.5572181706       16.5721864004        2.4274134426
 Ca       -10.6442767195       18.3572561956        2.5338882998
  O        -1.6772835540       21.9118535441        2.4057924280
  O        -2.9947328583       19.7526235738        2.5173692070
  P        -3.1491126877       21.2790634527        2.4278864238
 Ca        -5.8647979644       22.4115019492        2.5361968247
  O        -5.4262861236       20.5577322714        6.0621941808
  O        -7.9546849436       20.6250274890        5.9199139476
  P        -6.7032488323       21.5247702753        6.0102099995
 Ca        -2.3472294833       16.2857286566        5.9328549316
  O       -10.3786030243       25.8292284169        6.0622800679
  O        -9.1728961158       23.6053301146        5.9190480629
  P       -10.5758414575       24.2394576923        6.0105650539
 Ca        -3.5046090235       22.4664351562        5.9386608899
  O         6.3806755706       18.9038363011        6.0617612823
  O       -11.1445459969       21.0603891611        5.9174228137
  P       -10.9926678288       19.5284081482        6.0126782907
 Ca        -8.2780578864       18.3854291349        5.9415400979
 Ca        -9.4243311104       21.7642901001        1.0572874341
 Ca        -4.7112947253       19.0430676428        4.0507524330
 Ca        -4.7117648673       19.0430866905        7.4461071156
 Ca        -9.4240511338       21.7646850297        4.4254228912
  O        -9.4252563035       16.3212452466        9.8321755737
  H        -9.4143957729       16.3342960296        8.8802135667
  O        -9.5727313521       16.1087077508        5.1599583554
  H        -9.3392043689       16.4398939790        4.2457768517
  O        -9.3265795296       16.4544272592        6.6518439995
  H        -9.4551702607       16.2863199355        7.8580293079
  O        -9.4227906195       16.3246301503        2.1331860090
  H        -9.4342724180       16.3086721523        3.0418582141
  O         1.8981618555       18.3454297107        1.2483726201
  O         6.7232579617       16.9555897946        1.2484681754
  O         5.5144650202       21.8287462830        1.2483551110
  O         2.6998372982       22.3751779429        4.6770687559
  O        -1.8891609358       23.7999796472        4.6796571885
  O        -0.8191744347       19.1170965218        4.6778900807
  O         2.7933815493       22.4659711769        7.1820173023
  O        -1.9973590739       23.8273345003        7.1850353017
  O        -0.7887122735       18.9955304656        7.1822337860
  O         1.9992791280       18.4178749382        3.7585782286
  O         6.6081644720       17.0071872773        3.7575253691
  O         5.5276233967       21.7030735109        3.7569280158
  O         0.7112097021       20.2372593166        2.4058550427
  O         3.2389703046       20.1757594593        2.5176333457
  P         1.9945502297       19.2795843558        2.4278149430
 Ca        -2.3395067041       24.5229751657        2.5335309409
  O         5.6776995062       14.9813428919        2.4056365032
  O         4.4671059301       17.2015411766        2.5175065920
  P         5.8667290574       16.5722092842        2.4276472927
 Ca        -1.2197899735       18.3567836956        2.5363207763
  O       -11.1011381474       21.9115251521        2.4056584576
  O         6.4295634058       19.7521338869        2.5173526010
  P         6.2746954645       21.2791976204        2.4275109579
 Ca         3.5602407647       22.4112170780        2.5371412212
  O         3.9976377621       20.5575185691        6.0622360464
  O         1.4693407058       20.6251458471        5.9201724923
  P         2.7208724420       21.5245251405        6.0098428981
 Ca         7.0766392405       16.2841663601        5.9337260153
  O        -0.9543585594       25.8290062055        6.0619060278
  O         0.2509002366       23.6054182127        5.9176530089
  P        -1.1511841013       24.2399920389        6.0123106966
 Ca         5.9169463551       22.4701056242        5.9338791005
  O        -3.0435583404       18.9041585216        6.0622036437
  O        -1.7208867732       21.0609046537        5.9195208423
  P        -1.5677624027       19.5269520173        6.0106594986
 Ca         1.1418813790       18.3803272362        5.9379933315
 Ca        -0.0001767688       21.7639925925        1.0572390902
 Ca         4.7125989222       19.0435639092        4.0505642092
 Ca         4.7124181847       19.0432016057        7.4458797298
 Ca         0.0004147401       21.7634031733        4.4254327077
  O        -0.0017937949       16.3229098423        9.8327540063
  H         0.0143168138       16.3218525112        8.8803352465
  O        -0.2241073986       16.3229887766        5.1605508924
  H         0.1221360472       16.3251938931        4.2417691498
  O         0.1439808904       16.3194012728        6.6559731270
  H        -0.0471978724       16.3276079069        7.8590734605
  O         0.0019235480       16.3229493390        2.1332575253
  H        -0.0148189595       16.3226285451        3.0417337913
  O       -12.2374526317       26.5067405187        1.2485224097
  O        -7.4128112392       25.1165947401        1.2484579402
  O        -8.6217378828       29.9901760289        1.2485535462
  O       -11.4312037640       30.5405117901        4.6788387999
  O       -16.0190102974       31.9600776498        4.6781509075
  O       -14.9539086571       27.2701777082        4.6797502825
  O       -11.3488373844       30.6244656846        7.1841098920
  O       -16.1379320651       31.9913107284        7.1833915970
  O       -14.9249061466       27.1651709487        7.1851510405
  O       -12.1370426228       26.5797275809        3.7587313622
  O        -7.5283374254       25.1684431184        3.7571412662
  O        -8.6087910244       29.8656605090        3.7577275760
  O       -13.4251035652       28.3984815432        2.4059632176
  O       -10.8970486658       28.3373698256        2.5176732982
  P       -12.1413744205       27.4405566043        2.4277675538
 Ca       -16.4760106085       32.6839589974        2.5355648441
  O        -8.4579207587       23.1425883726        2.4058764133
  O        -9.6690998104       25.3630776800        2.5172772958
  P        -8.2692731969       24.7336957691        2.4276845650
 Ca       -15.3562291847       26.5194172284        2.5332871172
  O        -6.3893379785       30.0728550862        2.4056838978
  O        -7.7065853847       27.9137417054        2.5173512787
  P        -7.8611624269       29.4403690387        2.4279453978
 Ca       -10.5764211162       30.5719138083        2.5350233282
  O       -10.1382500030       28.7194269384        6.0620365112
  O       -12.6667837422       28.7864343439        5.9185626997
  P       -11.4153976313       29.6853079333        6.0112677731
 Ca        -7.0580459010       24.4475262307        5.9336867607
  O         3.7575562500        1.3447274415        6.0621311905
  O       -13.8846832759       31.7668265195        5.9192726394
  P       -15.2883674550       32.4012156579        6.0102617549
 Ca        -8.2170062699       30.6313616037        5.9362688035
  O         1.6688756199       27.0654299100        6.0617429742
  O       -15.8564440889       29.2217547771        5.9171485557
  P       -15.7051255427       27.6900137066        6.0126871269
 Ca       -12.9906874747       26.5427896124        5.9404751049
 Ca       -14.1361815983       29.9253211478        1.0571981580
 Ca        -9.4234418180       27.2045670206        4.0507743821
 Ca        -9.4238164955       27.2046553065        7.4460546656
 Ca       -14.1361036535       29.9258980080        4.4252986569
  O         4.7119619321       24.4822426856        9.8325150971
  H         4.7118974898       24.4977403939        8.8798852169
  O         4.6980968111       24.2767341423        5.1607810135
  H         4.7196833704       24.6007864409        4.2398517441
  O         4.7169961025       24.6174837114        6.6566552847
  H         4.7122932928       24.4379913705        7.8596315630
  O         4.7120279655       24.4861017593        2.1331153162
  H         4.7113294792       24.4694040994        3.0414619961
  O        -2.8133211763       26.5065964432        1.2485737291
  O         2.0113230956       25.1168422513        1.2484843829
  O         0.8025602003       29.9900906569        1.2485247140
  O        -2.0104765862       30.5378455570        4.6777556394
  O        -6.5951103209       31.9593934239        4.6782663757
  O        -5.5315668725       27.2784381900        4.6780618640
  O        -1.9212297784       30.6264996861        7.1829844883
  O        -6.7139479720       31.9918717804        7.1834576687
  O        -5.5007337949       27.1579453893        7.1830168111
  O        -2.7123005597       26.5797104793        3.7583482287
  O         1.8970637464       25.1683936435        3.7581228957
  O         0.8156094517       29.8647586552        3.7571763404
  O        -4.0008801636       28.3984998090        2.4056998026
  O        -1.4728425940       28.3374254877        2.5175502729
  P        -2.7174350316       27.4405116252        2.4278587198
 Ca        -7.0520227521       32.6845697615        2.5359705713
  O         0.9660518095       23.1429202700        2.4059606958
  O        -0.2445878813       25.3629366273        2.5175750644
  P         1.1546049204       24.7334160102        2.4279128660
 Ca        -5.9318038270       26.5184827514        2.5364147761
  O       -15.8130892437       30.0727045649        2.4057278185
  O         1.7177235567       27.9133807356        2.5174050575
  P         1.5625502373       29.4405495258        2.4276836262
 Ca        -1.1520856889       30.5723340314        2.5366101298
  O        -0.7141026361       28.7193141312        6.0623258888
  O        -3.2426059493       28.7865294827        5.9197180003
  P        -1.9912535580       29.6854900051        6.0098856585
 Ca         2.3633885687       24.4449371197        5.9360576835
  O        13.1817297310        1.3446726146        6.0621253242
  O        -4.4606901950       31.7668374862        5.9193542434
  P        -5.8642800166       32.4014479464        6.0099533069
 Ca         1.2047319986       30.6325242738        5.9343102004
  O        -7.7553519782       27.0656982075        6.0621892156
  O        -6.4327561769       29.2220660122        5.9195007197
  P        -6.2803802957       27.6889116535        6.0099290920
 Ca        -3.5708739040       26.5395519548        5.9374795737
 Ca        -4.7120779813       29.9252019277        1.0573009511
 Ca         0.0000982969       27.2051504595        4.0507364628
 Ca        -0.0000009688       27.2047130918        7.4461645741
 Ca        -4.7120393622       29.9251868665        4.4253922192
  O        -4.7132878530       24.4840062908        9.8327622214
  H        -4.7014153847       24.4839053379        8.8796840100
  O        -4.8719206603       24.4933504767        5.1616346186
  H        -4.6176770423       24.4766427820        4.2343477328
  O        -4.6142607165       24.4808646847        6.6596880958
  H        -4.7461008336       24.4830902402        7.8609230451
  O        -4.7105033301       24.4841818900        2.1329656325
  H        -4.7233812297       24.4846903703        3.0411670009
  O         0.4087647640       15.1725326084       16.0678623576
  C         0.0924882805       16.3146456895       16.0616927185
  O        -0.2182038089       17.4459446854       16.0629032481
     387
 i =       12, E =     -6918.8463713603
  O         1.8907202605        2.0131202216        1.2339915983
  O         6.7351983940        0.6311832369        1.2342695503
  O         5.5096855237        5.5166012449        1.2344940057
  O         2.7039572420        6.0737754791        4.6716351148
  O        -1.8793962322        7.4618621362        4.6654205799
  O        -0.8044769977        2.7782433748        4.6728838533
  O         2.7894413712        6.1549528693        7.1865537526
  O        -2.0291718262        7.5081943303        7.1810548294
  O        -0.7766522071        2.6737618549        7.1891408553
  O         1.9995223593        2.0761191408        3.7577484650
  O         6.6247439635        0.6934776284        3.7568895228
  O         5.5102949425        5.3888321728        3.7560472815
  O         0.6514550819        3.8797367132        2.4077913213
  O         3.1933857062        3.8230108502        2.4772620469
  P         1.9458963225        2.9363288052        2.4215394209
 Ca        -2.3573295284        8.2183066054        2.5199772782
  O       -13.1104525460       31.2698595406        2.4073903562
  O         4.5161184239        0.8543265373        2.4768773337
  P         5.9082572054        0.2169724297        2.4215366476
 Ca        -1.2287925601        2.0133161050        2.5127638978
  O         7.7464177593        5.6574003114        2.4071865499
  O         6.4260844127        3.4837798033        2.4768641111
  P         6.2824523100        5.0076519101        2.4204428134
 Ca         3.5839128112        6.0904856519        2.5142360594
  O         4.0528386792        4.2685770435        6.0746178352
  O         1.5121805904        4.3189594167        5.9614627729
  P         2.7629409005        5.2078828825        6.0075535998
 Ca         7.1611410188       -0.0498897289        5.9167026397
  O        -1.0096090904        9.5372851933        6.0751706665
  O         0.2143353955        7.3110493492        5.9664553360
  P        -1.1830668887        7.9503072099        6.0053718387
 Ca         5.8874250259        6.2283314260        5.9099441151
  O        15.8063544280        2.5169630420        6.0745864671
  O        -1.7274927722        4.6924116960        5.9604050796
  P        -1.5840511257        3.1650696422        6.0069526356
 Ca         1.0924051774        1.9920394260        5.9204622609
 Ca        -0.0006326719        5.4408380172        1.0345900681
 Ca         4.7126013933        2.7206889771        3.9825664056
 Ca         4.7124348498        2.7207365687        7.4485368751
 Ca        -0.0008575710        5.4415421316        4.4776577069
  O         0.0002860690       -0.0030210293       10.0829912638
  H        -0.0029880854        0.0174011229        9.1299049807
  O         0.0215366343       -0.3015715745        5.0944272125
  H        -0.0126240472        0.1869266897        4.2640596966
  O        -0.0186193991        0.1661619798        6.7294866137
  H         0.0093572667       -0.0544377620        7.9078544208
  O        -0.0001913540        0.0035663433        1.8991021059
  H         0.0018206219       -0.0206314500        2.8335562890
  O        11.3146337745        2.0134784160        1.2340602126
  O        16.1594730469        0.6315362243        1.2344201367
  O        14.9338055331        5.5165811680        1.2343718464
  O        12.1301637975        6.0762062604        4.6721034790
  O         7.5424886147        7.4628360977        4.6665768558
  O         8.6157754677        2.7891938363        4.6707742617
  O        12.2119410115        6.1541229254        7.1872742084
  O         7.3974047384        7.5070451923        7.1823357033
  O         8.6477329594        2.6652441819        7.1862818346
  O        11.4257133604        2.0779401945        3.7557777735
  O        16.0495823963        0.6941078516        3.7573950551
  O        14.9341450187        5.3890160249        3.7563321733
  O        10.0755185301        3.8802960022        2.4073981625
  O        12.6180109365        3.8239446095        2.4770316313
  P        11.3699559625        2.9355163699        2.4212681076
 Ca         7.0670589493        8.2180137793        2.5197266558
  O        -3.6863100215       31.2703766369        2.4072608400
  O        13.9406709638        0.8543378398        2.4769995434
  P        15.3317597233        0.2166474257        2.4212379578
 Ca         8.1971046943        2.0126354402        2.5169400726
  O        -1.6773851663        5.6571588242        2.4071569795
  O        15.8504303680        3.4838074113        2.4771093379
  P        15.7063360769        5.0076583117        2.4203563516
 Ca        13.0079000716        6.0899539425        2.5131914373
  O        13.4770748562        4.2691014068        6.0745654927
  O        10.9365351796        4.3198105990        5.9606906343
  P        12.1863179553        5.2064542066        6.0079542817
 Ca        16.5856206836       -0.0534091605        5.9145519985
  O         8.4144100772        9.5374190958        6.0752180193
  O         9.6385893070        7.3110011150        5.9662932844
  P         8.2405493673        7.9500384978        6.0048415004
 Ca        15.3130155900        6.2262140484        5.9099646975
  O         6.3820500789        2.5170509388        6.0751927595
  O         7.6962234006        4.6929171851        5.9635369113
  P         7.8415226959        3.1632173845        6.0035389089
 Ca        10.5099439975        1.9800117618        5.9121824879
 Ca         9.4235349466        5.4403378893        1.0346490762
 Ca        14.1356689868        2.7205634176        3.9822977374
 Ca        14.1360712204        2.7205626388        7.4484257410
 Ca         9.4227583033        5.4401779992        4.4775740953
  O         9.4249557086        0.0005021184       10.0832591966
  H         9.4175232721       -0.0061297213        9.1300034650
  O         9.5011568629        0.0615906570        5.1014936010
  H         9.3670497681       -0.0431795974        4.2437006722
  O         9.3853226695       -0.0332781950        6.7425084708
  H         9.4430310645        0.0184600094        7.9107117032
  O         9.4229239666       -0.0006633695        1.8984926715
  H         9.4305708046        0.0044479450        2.8328363023
  O        -2.8207819915       10.1745611446        1.2342878042
  O         2.0234942478        8.7928308651        1.2344621116
  O         0.7981506922       13.6783068105        1.2342272188
  O        -2.0166331291       14.2221682850        4.6672840826
  O        -6.6165290645       15.6337516919        4.6718304730
  O        -5.5185643466       10.9385969429        4.6724344395
  O        -1.9146863941       14.3236809919        7.1830345913
  O        -6.7220355147       15.6576411316        7.1893023953
  O        -5.4877254222       10.8369882111        7.1904230324
  O        -2.7104367491       10.2395100610        3.7561637220
  O         1.9163487819        8.8545440680        3.7595931307
  O         0.7987795053       13.5536591679        3.7579267903
  O        -4.0607518441       12.0409189880        2.4076326072
  O        -1.5177327285       11.9849958454        2.4768755585
  P        -2.7655630548       11.0981670067        2.4202919747
 Ca        -7.0651843142       16.3768237710        2.5110403521
  O         1.0264054686        6.7866107998        2.4083021530
  O        -0.1943911658        9.0159290461        2.4773166108
  P         1.1953535198        8.3770570046        2.4208429877
 Ca        -5.9387370483       10.1765400529        2.5115063417
  O         3.0344490848       13.8189796526        2.4082324667
  O         1.7141980281       11.6455253733        2.4773656308
  P         1.5704100896       13.1694053295        2.4209238965
 Ca        -1.1304107206       14.2542769739        2.5186778895
  O        -0.6578531339       12.4300836997        6.0755732745
  O        -3.2000079480       12.4794811478        5.9649082839
  P        -1.9494824655       13.3723755770        6.0047694433
 Ca         2.4321151646        8.1081350071        5.9228910589
  O        -5.7239843685       17.6980692245        6.0742092364
  O        -4.4975668948       15.4724567085        5.9603263895
  P        -5.8897535859       16.1115504680        6.0081209205
 Ca         1.1767935825       14.3769187090        5.9211368279
  O        11.0945362589       10.6772548100        6.0745939545
  O        -6.4398465946       12.8536080041        5.9607278358
  P        -6.2957516160       11.3270518790        6.0073287103
 Ca        -3.6210897009       10.1447256531        5.9151626854
 Ca        -4.7116777953       13.6023622016        1.0348644536
 Ca        -0.0013882731       10.8822195954        3.9826241667
 Ca        -0.0005289555       10.8817380272        7.4487951130
 Ca        -4.7101890471       13.6024485989        4.4777529830
  O        14.1405233654        8.1583788307       10.0823815922
  H        14.1066983472        8.1743039581        9.1298425830
  O        14.6023313451        8.0550236791        5.0889276750
  H        13.8600875749        8.2181577211        4.3025012432
  O        13.8322396941        8.2517871378        6.7003071359
  H        14.2270134538        8.1162795057        7.8994909723
  O        14.1308005626        8.1620548317        1.9001568682
  H        14.1675010319        8.1534423451        2.8345090202
  O         6.6031468626       10.1745614091        1.2342459674
  O        11.4474573202        8.7928644075        1.2345272437
  O        10.2224159256       13.6782007084        1.2343006249
  O         7.3998009297       14.2184287362        4.6641801162
  O         2.8014267232       15.6337264955        4.6739576722
  O         3.9054679886       10.9404123522        4.6724194843
  O         7.5162079304       14.3271563096        7.1799181943
  O         2.7082280381       15.6549806549        7.1933042974
  O         3.9360215788       10.8365885714        7.1902562569
  O         6.7132607090       10.2395132743        3.7561293907
  O        11.3412605135        8.8542661531        3.7603621719
  O        10.2232883070       13.5501726353        3.7559692890
  O         5.3630879235       12.0409428197        2.4075749367
  O         7.9061701034       11.9852024136        2.4767812017
  P         6.6582412725       11.0977780129        2.4208187591
 Ca         2.3597194350       16.3793342850        2.5089879665
  O        10.4505633685        6.7869068336        2.4085672769
  O         9.2300273463        9.0159979667        2.4775876642
  P        10.6190653894        8.3766748519        2.4203574255
 Ca         3.4849164477       10.1758963299        2.5120797883
  O        -6.3895569878       13.8185181479        2.4079163729
  O        11.1384504494       11.6446475943        2.4771859187
  P        10.9945605266       13.1693978569        2.4199478504
 Ca         8.2962867225       14.2547075141        2.5205349648
  O         8.7650687844       12.4303412972        6.0753178869
  O         6.2244098378       12.4809846079        5.9658670571
  P         7.4758275433       13.3711294552        6.0056118275
 Ca        11.8498412436        8.1080902051        5.9244574471
  O         3.7003745820       17.6971131403        6.0738895638
  O         4.9259224337       15.4722780125        5.9590490630
  P         3.5347563090       16.1135895742        6.0083146168
 Ca        10.5969993367       14.3844197350        5.9146634015
  O         1.6706136328       10.6778515473        6.0745462469
  O         2.9844916584       12.8540186422        5.9613348570
  P         3.1284701053       11.3257590649        6.0072816836
 Ca         5.8021419757       10.1430180503        5.9152897064
 Ca         4.7127172051       13.6022606014        1.0347127024
 Ca         9.4231026127       10.8828433800        3.9823995607
 Ca         9.4238396391       10.8818279609        7.4486296219
 Ca         4.7145121681       13.6013656078        4.4772285181
  O         4.7154659004        8.1583198725       10.0825623090
  H         4.6881352383        8.1750056283        9.1296187475
  O         5.1265994930        8.0339823106        5.0921823027
  H         4.4774982461        8.2280865692        4.2845628070
  O         4.4706661326        8.2611720201        6.7124868372
  H         4.7859231583        8.1138084525        7.9037460842
  O         4.7076702731        8.1623598172        1.8995395449
  H         4.7381884946        8.1527008756        2.8340918547
  O        -7.5333445406       18.3355924368        1.2343886202
  O        -2.6890157527       16.9540188377        1.2344622241
  O        -3.9143525596       21.8396666085        1.2340691229
  O        -6.7274877922       22.3850896238        4.6682272282
  O       -11.3176651201       23.7917654019        4.6698821652
  O       -10.2257587588       19.0981253545        4.6724269692
  O        -6.6274384268       22.4829880845        7.1844204112
  O       -11.4428164041       23.8237110094        7.1851140488
  O       -10.2013838524       18.9957474883        7.1885810252
  O        -7.4271161557       18.3953867776        3.7605826364
  O        -2.8022500629       17.0178340185        3.7549779889
  O        -3.9135232048       21.7143244646        3.7573040964
  O        -8.7719495745       20.2012960724        2.4084953150
  O        -6.2313734175       20.1439758152        2.4779752760
  P        -7.4784608418       19.2613828728        2.4202119952
 Ca       -11.7784034220       24.5388397149        2.5157479077
  O        -3.6871964613       14.9473868675        2.4071934810
  O        -4.9086043222       17.1775214287        2.4770376439
  P        -3.5158964583       16.5391474040        2.4194563515
 Ca       -10.6535695423       18.3351712281        2.5121088784
  O        -1.6772377722       21.9806831098        2.4074385353
  O        -2.9986230802       19.8073246934        2.4767878645
  P        -3.1414880273       21.3314692238        2.4215567021
 Ca        -5.8419518011       22.4165049873        2.5181551593
  O        -5.3710428901       20.5911470841        6.0749970672
  O        -7.9120107934       20.6414497026        5.9650600092
  P        -6.6605950818       21.5348933962        6.0049459114
 Ca        -2.2676813520       16.2732797777        5.9096393895
  O       -10.4352850981       25.8605978489        6.0750902465
  O        -9.2089851544       23.6339032980        5.9633279478
  P       -10.6037707326       24.2719536333        6.0053274495
 Ca        -3.5351999574       22.5419408988        5.9201459072
  O         6.3818395822       18.8391313423        6.0739718763
  O       -11.1510537770       21.0141083987        5.9595847911
  P       -11.0081062026       19.4887473778        6.0088819326
 Ca        -8.3234869561       18.3364130063        5.9264383763
 Ca        -9.4244331185       21.7647489896        1.0347353710
 Ca        -4.7104278832       19.0434104167        3.9830438221
 Ca        -4.7113115992       19.0432335312        7.4485927951
 Ca        -9.4235469092       21.7658610675        4.4781657070
  O        -9.4275274470       16.3182849506       10.0821755737
  H        -9.4025062369       16.3486946548        9.1302135667
  O        -9.7583887620       15.8587077508        5.0825845800
  H        -9.2357664422       16.5831898804        4.3251560635
  O        -9.2076013450       16.6205714903        6.6877466943
  H        -9.4916707615       16.2419246282        7.8949960932
  O        -9.4204975315       16.3280286187        1.9011518059
  H        -9.4459481539       16.2926382263        2.8349862747
  O         1.8906345558       18.3355162917        1.2341834145
  O         6.7351379349       16.9543546496        1.2342975361
  O         5.5101003212       21.8395363970        1.2341890378
  O         2.6914455958       22.3842401527        4.6664916824
  O        -1.9060859687       23.7938167824        4.6732000302
  O        -0.8055704719       19.1155880186        4.6689145775
  O         2.8023218281       22.4850758535        7.1818927207
  O        -2.0069683932       23.8184891457        7.1907356865
  O        -0.7768448675       18.9808683175        7.1830406318
  O         1.9990944101       18.3964481026        3.7589016793
  O         6.6240077940       17.0178626174        3.7565850508
  O         5.5111500014       21.7102939158        3.7550831682
  O         0.6523860613       20.2017819082        2.4076127074
  O         3.1932118915       20.1449038065        2.4774560387
  P         1.9453237634       19.2607578855        2.4208658157
 Ca        -2.3534165297       24.5409856266        2.5112896366
  O         5.7367429013       14.9474262828        2.4074065813
  O         4.5159164783       17.1771116714        2.4772421612
  P         5.9076958790       16.5396109576        2.4204369122
 Ca        -1.2281711579       18.3341380025        2.5184207445
  O       -11.1011974272       21.9797392098        2.4072162817
  O         6.4259151695       19.8065131338        2.4769834360
  P         6.2826364701       21.3317861745        2.4199116367
 Ca         3.5840602351       22.4158421999        2.5202152137
  O         4.0531703431       20.5905117644        6.0749426523
  O         1.5124532675       20.6417415858        5.9654927017
  P         2.7631480602       21.5340959516        6.0049409610
 Ca         7.1586375407       16.2706247394        5.9105495739
  O        -1.0106146105       25.8600636615        6.0744820265
  O         0.2144189186       23.6341226425        5.9603526392
  P        -1.1784309988       24.2735514221        6.0079736769
 Ca         5.8857030832       22.5477044069        5.9107964313
  O        -3.0432121954       18.8398017401        6.0748017120
  O        -1.7279947979       21.0155302328        5.9642580609
  P        -1.5814632923       19.4861989208        6.0050843556
 Ca         1.0882020009       18.3216593077        5.9187933549
 Ca        -0.0002720990       21.7639676297        1.0348401915
 Ca         4.7128406836       19.0440265748        3.9824025491
 Ca         4.7126105509       19.0438477264        7.4484083661
 Ca         0.0009466410       21.7623038974        4.4782224905
  O        -0.0049828889       16.3229663710       10.0827540063
  H         0.0318404865       16.3205728525        9.1303352465
  O        -0.4741073986       16.3228069224        5.0868233103
  H         0.2781391081       16.3280786907        4.3074215144
  O         0.3373178635       16.3154318047        6.7008663422
  H        -0.1040183111       16.3328147411        7.8985093367
  O         0.0056484310       16.3230841598        1.9008776505
  H        -0.0317483843       16.3222853322        2.8346828020
  O       -12.2448948250       26.4970006077        1.2342774817
  O        -7.4011194712       25.1149687043        1.2342877763
  O        -8.6263170208       30.0009707386        1.2343683648
  O       -11.4331615983       30.5541246028        4.6715556141
  O       -16.0272738667       31.9518024930        4.6701471789
  O       -14.9388718480       27.2573698329        4.6737251422
  O       -11.3488286810       30.6389225293        7.1878195991
  O       -16.1539740336       31.9861499061        7.1857154506
  O       -14.9125648004       27.1628342555        7.1920050073
  O       -12.1380441077       26.5590719519        3.7592675747
  O        -7.5138073034       25.1789481604        3.7551983100
  O        -8.6257660035       29.8744745373        3.7564325544
  O       -13.4846300763       28.3631770210        2.4079960758
  O       -10.9431538567       28.3063792579        2.4775751792
  P       -12.1899985823       27.4219756383        2.4208664443
 Ca       -16.4911409527       32.7016135455        2.5164562688
  O        -8.3987701402       23.1086830800        2.4075256466
  O        -9.6205631720       25.3388510568        2.4766979016
  P        -8.2278742780       24.7010525221        2.4203597662
 Ca       -15.3654825996       26.4982250703        2.5104837824
  O        -6.3894791318       30.1414099284        2.4072524166
  O        -7.7099772408       27.9680131342        2.4768377381
  P        -7.8538412869       29.4927912197        2.4214869075
 Ca       -10.5528879241       30.5759986760        2.5153752030
  O       -10.0834574878       28.7527170313        6.0747959267
  O       -12.6245880197       28.8024794415        5.9622648854
  P       -11.3722638595       29.6941096821        6.0060695925
 Ca        -6.9724882998       24.4349773665        5.9099830695
  O         3.7012028372        1.3754680970        6.0750149215
  O       -13.9206408822       31.7953530527        5.9639357387
  P       -15.3172590047       32.4342969756        6.0043773717
 Ca        -8.2495478755       30.7135348250        5.9143687819
  O         1.6710903639       27.0008986421        6.0742010885
  O       -15.8625571102       29.1751972061        5.9593324023
  P       -15.7219707228       27.6501243983        6.0076867076
 Ca       -13.0375288544       26.4860619417        5.9241420793
 Ca       -14.1362246775       29.9257848653        1.0346653882
 Ca        -9.4227452045       27.2046059614        3.9828529150
 Ca        -9.4234973209       27.2043688171        7.4484745345
 Ca       -14.1356746540       29.9270521621        4.4774647092
  O         4.7118985338       24.4785841263       10.0825150971
  H         4.7119106077       24.5149010745        9.1298852169
  O         4.6739290853       24.0267341423        5.0884145747
  H         4.7315602361       24.7528628106        4.2996424850
  O         4.7206772672       24.7939749278        6.7052651398
  H         4.7133884328       24.3836404957        7.9004488383
  O         4.7120977380       24.4895264239        1.9003047642
  H         4.7105615056       24.4529955870        2.8343034580
  O        -2.8205236112       26.4967665059        1.2342847328
  O         2.0233274770       25.1156365897        1.2342242657
  O         0.7983120344       30.0008348323        1.2343046909
  O        -2.0166768695       30.5480623313        4.6687718881
  O        -6.6030968568       31.9502711450        4.6705603458
  O        -5.5186008581       27.2770697469        4.6696597758
  O        -1.9161498269       30.6433760388        7.1846981510
  O        -6.7296889361       31.9873700217        7.1862052703
  O        -5.4890797962       27.1454261920        7.1847249650
  O        -2.7120058250       26.5593657386        3.7581511585
  O         1.9141335463       25.1789722612        3.7577460701
  O         0.7992189101       29.8723428328        3.7553094330
  O        -4.0599224542       28.3632315390        2.4073585986
  O        -1.5184913623       28.3067799617        2.4771999519
  P        -2.7663832558       27.4216233502        2.4213579989
 Ca        -7.0675942401       32.7029656736        2.5175496355
  O         1.0254264067       23.1093830534        2.4077852603
  O        -0.1954347812       25.3385834424        2.4773298636
  P         1.1957632664       24.7006725182        2.4212396440
 Ca        -5.9401372487       26.4959051206        2.5184876420
  O       -15.8132200767       30.1409562808        2.4074351902
  O         1.7145755717       27.9675212652        2.4771069139
  P         1.5700880675       29.4929990672        2.4204692359
 Ca        -1.1283519208       30.5769648165        2.5190641388
  O        -0.6588934276       28.7523524338        6.0752519892
  O        -3.1998708448       28.8030262631        5.9647418612
  P        -1.9481863067       29.6946399287        6.0040672812
 Ca         2.4476714984       24.4286790956        5.9142668718
  O        13.1257724592        1.3753418859        6.0750457650
  O        -4.4965350702       31.7953697998        5.9642742227
  P        -5.8934317244       32.4349091539        6.0031632086
 Ca         1.1701039791       30.7148834594        5.9107905997
  O        -7.7540587861       27.0014735775        6.0748664880
  O        -6.4394441542       29.1766090972        5.9642841560
  P        -6.2949681631       27.6474431431        6.0038130574
 Ca        -3.6255840945       26.4763518405        5.9174430242
 Ca        -4.7122396637       29.9254539821        1.0349077082
 Ca        -0.0000803280       27.2054299048        3.9825282796
 Ca        -0.0003155585       27.2047148672        7.4487367402
 Ca        -4.7120750041       29.9251054400        4.4777040292
  O        -4.7155153546       24.4834472564       10.0827622214
  H        -4.6888302317       24.4841976657        9.1296840100
  O        -5.0951634146       24.5042554716        5.0931295568
  H        -4.4895782638       24.4675337653        4.2775137801
  O        -4.4798761945       24.4759171014        6.7174787618
  H        -4.7865510451       24.4826857620        7.9056852077
  O        -4.7076561128       24.4840198730        1.8993803630
  H        -4.7364087693       24.4856524985        2.8337921959
  O         0.4108055989       15.1661765060       16.0662131777
  C         0.0729431704       16.3625888481       16.0537032602
  O        -0.2114009485       17.4135976490       16.0543808976
     387
 i =       13, E =     -6919.0727223085
  O         1.8949962231        2.0144369114        1.2316007989
  O         6.7321010744        0.6344109203        1.2308325342
  O         5.5085423931        5.5126637068        1.2313853678
  O         2.7112190440        6.0711211287        4.6752138391
  O        -1.8765928621        7.4675357965        4.6675458166
  O        -0.8108326209        2.7733225779        4.6773900550
  O         2.7887809733        6.1533332183        7.1880650793
  O        -2.0302006621        7.5085881375        7.1799573507
  O        -0.7762636083        2.6757431602        7.1944544293
  O         1.9939085176        2.0768772985        3.7572974042
  O         6.6252754268        0.6887947369        3.7552112284
  O         5.5145268735        5.3913096875        3.7548839721
  O         0.6591923744        3.8852176267        2.4116479621
  O         3.2137763606        3.8363430687        2.4832959420
  P         1.9584623353        2.9451558242        2.4298130018
 Ca        -2.3535193619        8.2107424073        2.5165882070
  O       -13.1190738715       31.2738286186        2.4109053928
  O         4.4940218292        0.8654035945        2.4824094138
  P         5.8944567011        0.2236669928        2.4321414683
 Ca        -1.2246343491        2.0214005392        2.5085411132
  O         7.7470792268        5.6479177936        2.4109011854
  O         6.4274845412        3.4593717025        2.4826752484
  P         6.2836569342        4.9923962312        2.4300078012
 Ca         3.5747036246        6.0903502311        2.5111689322
  O         4.0452007933        4.2693123039        6.0596965500
  O         1.4938520501        4.3061202182        5.9548418956
  P         2.7482881055        5.2017422954        6.0093966893
 Ca         7.1400180481       -0.0421674303        5.9232502496
  O        -1.0068981743        9.5298165120        6.0597917186
  O         0.2320431207        7.3015777584        5.9593639952
  P        -1.1675752327        7.9426710076        6.0118859986
 Ca         5.8988186323        6.1862938923        5.9240890776
  O        15.8121912603        2.5237082557        6.0600471301
  O        -1.7284686717        4.7129257195        5.9550021116
  P        -1.5852740423        3.1805403580        6.0039896479
 Ca         1.1135057744        2.0106870093        5.9260984633
 Ca        -0.0004919559        5.4407968975        1.0260410411
 Ca         4.7126833886        2.7202801188        4.0009675236
 Ca         4.7124548719        2.7204696288        7.4662559291
 Ca         0.0003658970        5.4410115187        4.4627816991
  O         0.0004631178       -0.0041008242       10.0160841958
  H        -0.0032215494        0.0191328021        9.0330450960
  O         0.0130211188       -0.2944827548        5.1215181074
  H        -0.0103138346        0.1856743987        4.2513734314
  O        -0.0241440508        0.1738096574        6.7346482765
  H         0.0111352677       -0.0532060515        7.8749282297
  O        -0.0001929102        0.0043068474        1.9665434361
  H         0.0018171704       -0.0204471085        2.9248730702
  O        11.3191203421        2.0147643550        1.2308542652
  O        16.1562745804        0.6347599873        1.2318233671
  O        14.9327328498        5.5126442865        1.2314911326
  O        12.1377621957        6.0732721399        4.6758478962
  O         7.5450619127        7.4686662917        4.6683017812
  O         8.6080086186        2.7868264050        4.6751401310
  O        12.2107397613        6.1519102926        7.1896090776
  O         7.3966655173        7.5078641670        7.1812236501
  O         8.6467323230        2.6667022265        7.1877481426
  O        11.4217001389        2.0806564308        3.7539591461
  O        16.0510935166        0.6896826024        3.7566577294
  O        14.9382389783        5.3916046707        3.7554812955
  O        10.0836262320        3.8856881657        2.4109670072
  O        12.6383782983        3.8371994780        2.4826406652
  P        11.3824908101        2.9446688599        2.4312928866
 Ca         7.0708173935        8.2102970067        2.5167415478
  O        -3.6948197730       31.2747664185        2.4109633123
  O        13.9185579594        0.8656297507        2.4830551805
  P        15.3182217498        0.2228300616        2.4298984179
 Ca         8.2026958726        2.0190413625        2.5147969213
  O        -1.6766113916        5.6477691743        2.4110917039
  O        15.8519385376        3.4591812504        2.4830404825
  P        15.7072495763        4.9923303171        2.4294960506
 Ca        12.9988552674        6.0899854676        2.5100585175
  O        13.4698737361        4.2696097464        6.0598752395
  O        10.9184645411        4.3076081773        5.9542916418
  P        12.1717221801        5.2010328713        6.0087510225
 Ca        16.5639533362       -0.0478351525        5.9210053116
  O         8.4173255516        9.5309283207        6.0599706181
  O         9.6563417899        7.3017774782        5.9591452006
  P         8.2557015662        7.9409284204        6.0116347650
 Ca        15.3228616826        6.1841829672        5.9237603756
  O         6.3871731211        2.5237744605        6.0602871002
  O         7.6947334216        4.7141257636        5.9579077593
  P         7.8418664227        3.1791385701        6.0039186893
 Ca        10.5272564890        1.9933731746        5.9190748873
 Ca         9.4235954778        5.4402328927        1.0261676430
 Ca        14.1355450471        2.7203648319        4.0002636802
 Ca        14.1354133279        2.7205394925        7.4664069671
 Ca         9.4234575950        5.4396514687        4.4632027141
  O         9.4253613764        0.0008933158       10.0172547534
  H         9.4173744367       -0.0064572121        9.0349295873
  O         9.5257201878        0.0737583465        5.1755423826
  H         9.3475332732       -0.0529377773        4.1476472728
  O         9.3874728535       -0.0406912577        6.7819798501
  H         9.4364655517        0.0196487421        7.8799503870
  O         9.4225082343       -0.0007255537        1.9647073243
  H         9.4299800516        0.0044980846        2.9238607891
  O        -2.8166483259       10.1754852490        1.2315683608
  O         2.0200928691        8.7958321541        1.2326179937
  O         0.7973489723       13.6741554185        1.2320752754
  O        -2.0120016180       14.2163419280        4.6703671935
  O        -6.6171667457       15.6411157590        4.6763595794
  O        -5.5250007120       10.9336981376        4.6771521949
  O        -1.9133789604       14.3238837698        7.1829020549
  O        -6.7197008032       15.6572226791        7.1922978793
  O        -5.4884334326       10.8387971691        7.1946186427
  O        -2.7148336414       10.2416385151        3.7552816564
  O         1.9196392664        8.8497048467        3.7594455896
  O         0.8024957608       13.5581152564        3.7580420387
  O        -4.0529971566       12.0465568384        2.4113256792
  O        -1.4972245763       11.9984296934        2.4827281528
  P        -2.7527892865       11.1068343090        2.4293403431
 Ca        -7.0619007397       16.3685344617        2.5078650027
  O         1.0176032050        6.7902304160        2.4122940008
  O        -0.2164533440        9.0269451293        2.4840952075
  P         1.1824782584        8.3837693818        2.4277921126
 Ca        -5.9340167349       10.1847599431        2.5071955476
  O         3.0358503437       13.8098497746        2.4125406704
  O         1.7157522044       11.6209811207        2.4837702750
  P         1.5706992594       13.1539849481        2.4285741323
 Ca        -1.1391765358       14.2545533258        2.5161038194
  O        -0.6650860716       12.4304399234        6.0606792112
  O        -3.2179305897       12.4662005996        5.9587107865
  P        -1.9645693632       13.3661969434        6.0080178856
 Ca         2.3974700595        8.1129217399        5.9266207708
  O        -5.7209083275       17.6906184224        6.0598214414
  O        -4.4782991710       15.4627831148        5.9538456447
  P        -5.8774161952       16.1030638845        6.0080187706
 Ca         1.1817093593       14.3448595145        5.9241979231
  O        11.1000377928       10.6840298924        6.0602394846
  O        -6.4414476408       12.8746005713        5.9548050117
  P        -6.2960265699       11.3426738959        6.0060470698
 Ca        -3.6022426299       10.1658094540        5.9229774424
 Ca        -4.7117142689       13.6019636710        1.0262460222
 Ca        -0.0015993991       10.8825911171        4.0005119253
 Ca        -0.0011308017       10.8821110187        7.4667048403
 Ca        -4.7094921281       13.6026409283        4.4632145268
  O        14.1435921138        8.1575518233       10.0127988127
  H        14.1028382060        8.1755966936        9.0342008142
  O        14.5306854668        8.0815831542        5.1040023136
  H        13.9096166834        8.2068606718        4.3181611287
  O        13.8831741071        8.2452450607        6.6952435622
  H        14.2131982012        8.1213618925        7.8635152501
  O        14.1298376503        8.1624857109        1.9684223789
  H        14.1665858340        8.1535273805        2.9261541122
  O         6.6073318194       10.1757931152        1.2317045314
  O        11.4441654176        8.7959840199        1.2324507415
  O        10.2209730392       13.6741511892        1.2312421457
  O         7.4020793221       14.2120331167        4.6662510141
  O         2.7999305842       15.6415150032        4.6802725341
  O         3.8993649418       10.9354967007        4.6769972350
  O         7.5167338910       14.3277056205        7.1787031742
  O         2.7085303763       15.6529327576        7.2007693877
  O         3.9357859172       10.8384574428        7.1944313449
  O         6.7087613840       10.2417283830        3.7555188290
  O        11.3445444501        8.8494692581        3.7596253412
  O        10.2276358203       13.5517033760        3.7547426176
  O         5.3708699388       12.0468126454        2.4116383998
  O         7.9266596500       11.9990536881        2.4829173479
  P         6.6710797968       11.1059435261        2.4293861504
 Ca         2.3647920517       16.3719848221        2.5033359373
  O        10.4418117801        6.7905031835        2.4124295422
  O         9.2080132022        9.0272531966        2.4843298676
  P        10.6064165663        8.3832732454        2.4279410810
 Ca         3.4892219675       10.1843565330        2.5075230333
  O        -6.3887186681       13.8089598560        2.4115575015
  O        11.1397633157       11.6201753245        2.4830839133
  P        10.9958713594       13.1541021254        2.4295528356
 Ca         8.2882179103       14.2556577449        2.5168109301
  O         8.7565002470       12.4318407275        6.0598915731
  O         6.2068031688       12.4703549810        5.9587179881
  P         7.4630052222       13.3610867732        6.0124481190
 Ca        11.8088744232        8.1128473385        5.9257571267
  O         3.7026390617       17.6876135623        6.0598999764
  O         4.9426919946       15.4621789978        5.9544233512
  P         3.5493359943       16.1093863557        6.0015310865
 Ca        10.6086296951       14.3576956185        5.9236104788
  O         1.6763682156       10.6845048949        6.0600732066
  O         2.9833190722       12.8756417932        5.9556168589
  P         3.1277394030       11.3414161832        6.0061206261
 Ca         5.8208199399       10.1612416051        5.9225478620
 Ca         4.7125815470       13.6020271061        1.0259026997
 Ca         9.4228474870       10.8827221661        4.0002238001
 Ca         9.4237134595       10.8814112440        7.4666505638
 Ca         4.7136754039       13.6000234753        4.4611154250
  O         4.7177048066        8.1576728647       10.0137315427
  H         4.6852742899        8.1762247865        9.0338560744
  O         5.0690052213        8.0618643435        5.1053031794
  H         4.5125268946        8.2166179135        4.2986240871
  O         4.4996750632        8.2596616841        6.7079587433
  H         4.7767400040        8.1176550137        7.8680912689
  O         4.7068440823        8.1627055591        1.9675918460
  H         4.7377239671        8.1527896063        2.9256158925
  O        -7.5287936354       18.3368560339        1.2319124341
  O        -2.6918634700       16.9571848929        1.2312401233
  O        -3.9152101856       21.8354848795        1.2319985912
  O        -6.7221224605       22.3798814599        4.6716628999
  O       -11.3178524464       23.7995654346        4.6739333919
  O       -10.2330226659       19.0939102655        4.6772636946
  O        -6.6265311939       22.4833830923        7.1854486837
  O       -11.4428152705       23.8237386029        7.1857546266
  O       -10.2025122998       18.9990342219        7.1931349075
  O        -7.4324747816       18.3958461017        3.7588823968
  O        -2.8036767158       17.0132367777        3.7540971106
  O        -3.9101305217       21.7188731608        3.7573951407
  O        -8.7644672210       20.2071863485        2.4121341307
  O        -6.2103459492       20.1572831484        2.4843362018
  P        -7.4669877716       19.2686479030        2.4290073274
 Ca       -11.7743558873       24.5308093957        2.5126064307
  O        -3.6955607820       14.9523548191        2.4107834973
  O        -4.9292698113       17.1888127835        2.4830686804
  P        -3.5305451604       16.5442308100        2.4283560631
 Ca       -10.6482869616       18.3421353443        2.5090605005
  O        -1.6763178530       21.9714387945        2.4114565359
  O        -2.9970830084       19.7824560720        2.4830267983
  P        -3.1408211565       21.3159484347        2.4289765764
 Ca        -5.8507740182       22.4168787689        2.5156433525
  O        -5.3783727119       20.5918690051        6.0602257209
  O        -7.9292228884       20.6301695879        5.9592422282
  P        -6.6766044546       21.5271111468        6.0064594247
 Ca        -2.3299717947       16.2790539851        5.9335039109
  O       -10.4325792397       25.8536011178        6.0603266563
  O        -9.1891094801       23.6248400089        5.9573247557
  P       -10.5904729336       24.2622843257        6.0068367934
 Ca        -3.5298977717       22.5125110711        5.9247154943
  O         6.3862652127       18.8452504430        6.0594770332
  O       -11.1528066590       21.0356800649        5.9533074577
  P       -11.0060906260       19.5029156860        6.0074533177
 Ca        -8.2941912513       18.3740513921        5.9244987893
 Ca        -9.4241554660       21.7646167297        1.0261445681
 Ca        -4.7101806960       19.0443784399        4.0017018627
 Ca        -4.7111542819       19.0433099425        7.4663863432
 Ca        -9.4226856511       21.7662696646        4.4641217444
  O        -9.4299498685       16.3155201980       10.0115886899
  H        -9.3997767621       16.3521144411        9.0361488142
  O        -9.6946609738       15.9318649579        5.1031543219
  H        -9.2740061333       16.5301083647        4.3370202779
  O        -9.2481619093       16.5565486471        6.6853268113
  H        -9.4794160069       16.2572253825        7.8559670020
  O        -9.4199490449       16.3284235866        1.9680303094
  H        -9.4449038599       16.2942116319        2.9277896832
  O         1.8950943503       18.3368816764        1.2323462232
  O         6.7317308553       16.9572586273        1.2317438561
  O         5.5087997566       21.8355830750        1.2312203024
  O         2.6952386403       22.3790765155        4.6691060023
  O        -1.9077460360       23.8019057238        4.6787027140
  O        -0.8117499013       19.1131918909        4.6732534325
  O         2.8034920937       22.4862475803        7.1819410078
  O        -2.0063101692       23.8169857360        7.1971224286
  O        -0.7766898807       18.9793631931        7.1844938381
  O         1.9938022078       18.3960959665        3.7587319477
  O         6.6238772802       17.0130022817        3.7559562786
  O         5.5157051192       21.7116493682        3.7542751964
  O         0.6600936523       20.2076213247        2.4114042631
  O         3.2142053434       20.1583952180        2.4839383612
  P         1.9574051038       19.2683984598        2.4282390408
 Ca        -2.3481137139       24.5335595355        2.5060140785
  O         5.7283508768       14.9512044963        2.4117052838
  O         4.4934242954       17.1880651136        2.4833876842
  P         5.8944770760       16.5470392155        2.4292265148
 Ca        -1.2228366352       18.3427295060        2.5164872407
  O       -11.1009673263       21.9701252136        2.4109000433
  O         6.4268412808       19.7827123497        2.4831337737
  P         6.2848740162       21.3161714014        2.4284142023
 Ca         3.5745635260       22.4164947249        2.5178973849
  O         4.0459740020       20.5905915851        6.0599594284
  O         1.4951898384       20.6296220697        5.9592488727
  P         2.7475717014       21.5256476509        6.0082655229
 Ca         7.1215530806       16.2849733961        5.9236024482
  O        -1.0081348976       25.8509195314        6.0602848013
  O         0.2321254705       23.6249755623        5.9555887939
  P        -1.1637274717       24.2682040915        6.0031258293
 Ca         5.9068803623       22.5059895984        5.9265673136
  O        -3.0383717925       18.8460603533        6.0599104209
  O        -1.7305447467       21.0380676699        5.9587186034
  P        -1.5803479230       19.5028977650        6.0045231798
 Ca         1.1056229451       18.3461411748        5.9226798750
 Ca        -0.0003161138       21.7638918440        1.0263388464
 Ca         4.7126272437       19.0441348229        4.0001769594
 Ca         4.7129094736       19.0453984835        7.4665423784
 Ca         0.0009258148       21.7603054672        4.4634076187
  O        -0.0082552731       16.3232151901       10.0126164498
  H         0.0361979016       16.3204116760        9.0353182071
  O        -0.3680476409       16.3244625378        5.0916621474
  H         0.2277603287       16.3279396938        4.3237259021
  O         0.3002944307       16.3173420129        6.6954622709
  H        -0.0873594163       16.3321844038        7.8627825755
  O         0.0061855191       16.3231365640        1.9688290421
  H        -0.0310689367       16.3223147335        2.9266337212
  O       -12.2406665200       26.4983468003        1.2325471142
  O        -7.4041645465       25.1180816370        1.2313336163
  O        -8.6273115133       29.9966300702        1.2313600733
  O       -11.4266861975       30.5498370556        4.6758746774
  O       -16.0264817439       31.9591428946        4.6742092500
  O       -14.9451310943       27.2519210199        4.6792955683
  O       -11.3500522681       30.6371269545        7.1904006520
  O       -16.1532899806       31.9860880650        7.1861336305
  O       -14.9110974706       27.1645971706        7.1988207873
  O       -12.1442485200       26.5591048234        3.7591993636
  O        -7.5147329318       25.1743119533        3.7542582489
  O        -8.6219073566       29.8772437696        3.7550114783
  O       -13.4772463185       28.3687440104        2.4121788982
  O       -10.9225172056       28.3195969035        2.4840959578
  P       -12.1775636646       27.4299250690        2.4277971499
 Ca       -16.4868166958       32.6932928357        2.5136557594
  O        -8.4073555489       23.1131902608        2.4109930024
  O        -9.6417895346       25.3499591806        2.4826610971
  P        -8.2422282728       24.7065921353        2.4291403390
 Ca       -15.3613811571       26.5060289276        2.5054532439
  O        -6.3886346508       30.1318404956        2.4109623956
  O        -7.7084798242       27.9431451555        2.4825952727
  P        -7.8530261488       29.4777220599        2.4311046422
 Ca       -10.5614026218       30.5769984826        2.5126692798
  O       -10.0919776567       28.7536117135        6.0601031071
  O       -12.6423835804       28.7904613928        5.9566473959
  P       -11.3860990295       29.6865459447        6.0058063209
 Ca        -7.0228875035       24.4405606912        5.9269269374
  O         3.7040677781        1.3691337207        6.0602520745
  O       -13.9007999673       31.7860262821        5.9578841440
  P       -15.3036857587       32.4242067168        6.0064095089
 Ca        -8.2476514335       30.6939436296        5.9203936401
  O         1.6772592214       27.0071847899        6.0600052414
  O       -15.8629646696       29.1947298245        5.9544045095
  P       -15.7240273728       27.6653661446        6.0026011430
 Ca       -13.0088194472       26.5142921495        5.9253963230
 Ca       -14.1359990398       29.9259470814        1.0260754829
 Ca        -9.4225511596       27.2055994463        4.0012645925
 Ca        -9.4231352072       27.2045087452        7.4662361878
 Ca       -14.1347351066       29.9287393149        4.4623984524
  O         4.7117381976       24.4758111946       10.0126780979
  H         4.7120371143       24.5187208455        9.0348351300
  O         4.6669364830       24.1001106497        5.1002137888
  H         4.7297132267       24.7065945341        4.3149950802
  O         4.7073837205       24.7562320337        6.7021314578
  H         4.7150207545       24.3983839273        7.8645418687
  O         4.7123278140       24.4902026943        1.9683293045
  H         4.7105822672       24.4536108135        2.9261495164
  O        -2.8162748670       26.4980303128        1.2323537401
  O         2.0200604014       25.1187655480        1.2321370387
  O         0.7972093053       29.9967194237        1.2313017247
  O        -2.0118736081       30.5432484778        4.6719320962
  O        -6.6011285375       31.9579082890        4.6747097047
  O        -5.5250539426       27.2743745895        4.6735860099
  O        -1.9152215266       30.6427202460        7.1849963040
  O        -6.7271454368       31.9870576664        7.1883688320
  O        -5.4894337183       27.1444339265        7.1856826270
  O        -2.7173017434       26.5590478551        3.7582904918
  O         1.9159095155       25.1745041250        3.7577647080
  O         0.8039045836       29.8738664293        3.7543763152
  O        -4.0522251562       28.3688771224        2.4111534311
  O        -1.4976263601       28.3201148741        2.4835472656
  P        -2.7539847747       27.4297100591        2.4286410500
 Ca        -7.0647962688       32.6946674398        2.5153857423
  O         1.0169635233       23.1132818473        2.4116617374
  O        -0.2175247574       25.3495927545        2.4837334954
  P         1.1822011735       24.7075485021        2.4289854167
 Ca        -5.9347974014       26.5040990395        2.5162192027
  O       -15.8126812710       30.1312283432        2.4112619449
  O         1.7158979113       27.9432506505        2.4833020788
  P         1.5717015682       29.4777067776        2.4292328150
 Ca        -1.1376476874       30.5777011264        2.5172043323
  O        -0.6654008848       28.7520484097        6.0606685553
  O        -3.2172827637       28.7900984014        5.9586543221
  P        -1.9649440386       29.6880941927        6.0066098944
 Ca         2.4238828103       24.4347348558        5.9204391883
  O        13.1291664023        1.3679244979        6.0601761835
  O        -4.4778777929       31.7862057765        5.9587420916
  P        -5.8805871360       32.4270301968        6.0041572824
 Ca         1.1824398861       30.6820312703        5.9218368523
  O        -7.7495684043       27.0072967568        6.0600416576
  O        -6.4411329504       29.1978390375        5.9584336043
  P        -6.2934994747       27.6653448549        6.0045483591
 Ca        -3.6080998149       26.4979735716        5.9222645817
 Ca        -4.7122746090       29.9253432421        1.0264720912
 Ca        -0.0008144920       27.2057359124        3.9998421440
 Ca        -0.0010922007       27.2060369763        7.4668019517
 Ca        -4.7117794935       29.9239610872        4.4632108158
  O        -4.7173175271       24.4836735237       10.0145393985
  H        -4.6862544074       24.4841702163        9.0334935098
  O        -5.0385952886       24.5024321117        5.1051863344
  H        -4.5134661694       24.4695575285        4.2856237370
  O        -4.4820904735       24.4768552258        6.7156908669
  H        -4.7801179770       24.4834536530        7.8710105276
  O        -4.7071696454       24.4839960408        1.9672574220
  H        -4.7360401471       24.4857483774        2.9253556030
  O         0.4226475106       15.1286441877       16.0665230649
  C         0.0819064051       16.3369441494       16.0556176467
  O        -0.2283248045       17.4751955230       16.0584706745
     387
 i =       14, E =     -6919.2088135042
  O         1.9022652512        2.0199696220        1.2294654306
  O         6.7232649093        0.6380047703        1.2282828856
  O         5.5097758779        5.5036512817        1.2289431359
  O         2.7189726505        6.0719173034        4.6796541309
  O        -1.8721993405        7.4709764408        4.6705919097
  O        -0.8144814359        2.7646648373        4.6824728002
  O         2.7851015001        6.1520610502        7.1907760203
  O        -2.0351907360        7.5070573388        7.1791923141
  O        -0.7755145825        2.6837166197        7.2005641936
  O         1.9868304063        2.0717020787        3.7556801704
  O         6.6306170318        0.6862818661        3.7529435747
  O         5.5146383258        5.3962177352        3.7527656269
  O         0.6522891480        3.8814091098        2.4210210239
  O         3.2252022678        3.8388154700        2.4768075386
  P         1.9616711446        2.9496632001        2.4359715914
 Ca        -2.3547761384        8.2033415289        2.5049462799
  O       -13.1124902621       31.2698335229        2.4197734194
  O         4.4856435869        0.8739159240        2.4749109554
  P         5.8889720180        0.2245204662        2.4396917558
 Ca        -1.2185096626        2.0259007723        2.4937064626
  O         7.7469300462        5.6553460239        2.4196887691
  O         6.4242656987        3.4476431703        2.4756012595
  P         6.2861188920        4.9874361224        2.4368120885
 Ca         3.5680127979        6.0940256377        2.4986666133
  O         4.0524942109        4.2796773353        6.0435887129
  O         1.4831011273        4.2976578905        5.9628136880
  P         2.7402399445        5.1959541380        6.0078042683
 Ca         7.1402657412       -0.0328264328        5.9263207047
  O        -1.0194884596        9.5310721039        6.0438532591
  O         0.2421637332        7.2957531583        5.9694116733
  P        -1.1577689494        7.9405139930        6.0116620783
 Ca         5.9002855889        6.1580272978        5.9335727366
  O        15.8189395263        2.5126610063        6.0442834588
  O        -1.7286346696        4.7239649521        5.9647712036
  P        -1.5883496544        3.1880457647        5.9992842522
 Ca         1.1285109293        2.0134553898        5.9282621406
 Ca        -0.0004226108        5.4408550651        0.9991368274
 Ca         4.7128115429        2.7197195715        4.0094886343
 Ca         4.7124462161        2.7199090861        7.4957292288
 Ca         0.0021455470        5.4410456590        4.4533057152
  O         0.0007233921       -0.0060462311        9.9662639323
  H        -0.0042181001        0.0254881321        8.9719667574
  O         0.0016623811       -0.3396701027        5.1306602126
  H        -0.0073405348        0.2138962735        4.2780004978
  O        -0.0391080763        0.2265368146        6.7590244722
  H         0.0171700925       -0.0647978599        7.8245900959
  O        -0.0003768821        0.0055720854        2.0257627511
  H         0.0021058875       -0.0240717774        2.9894980702
  O        11.3267087396        2.0210307420        1.2289730190
  O        16.1478402004        0.6388115809        1.2293794719
  O        14.9338991097        5.5036850840        1.2290695372
  O        12.1466720344        6.0747384831        4.6801519379
  O         7.5491244628        7.4724405141        4.6711227342
  O         8.6016642568        2.7840940974        4.6794084814
  O        12.2059862117        6.1498562691        7.1935617587
  O         7.3924514251        7.5067273627        7.1809919337
  O         8.6470599727        2.6703797032        7.1895809733
  O        11.4176744772        2.0782365753        3.7516229733
  O        16.0577721818        0.6874867512        3.7545886927
  O        14.9381555376        5.3966613350        3.7537298163
  O        10.0773723294        3.8818682516        2.4198902691
  O        12.6501787370        3.8399387537        2.4756594058
  P        11.3853664504        2.9495429060        2.4367942879
 Ca         7.0694068384        8.2026212150        2.5056600651
  O        -3.6880506583       31.2714192735        2.4198785294
  O        13.9104586227        0.8744373124        2.4763830348
  P        15.3128040923        0.2230046926        2.4369065675
 Ca         8.2112571380        2.0209810675        2.5043251586
  O        -1.6767811687        5.6551474200        2.4202379573
  O        15.8488239150        3.4472451666        2.4762790085
  P        15.7095450034        4.9873680424        2.4360965947
 Ca        12.9923273733        6.0938313909        2.4971831701
  O        13.4780230530        4.2798303474        6.0440620946
  O        10.9085092170        4.3004045112        5.9622801524
  P        12.1630634744        5.1952710985        6.0063104444
 Ca        16.5640182357       -0.0424091938        5.9228207389
  O         8.4050865887        9.5325872523        6.0441026687
  O         9.6665583859        7.2961116118        5.9689503221
  P         8.2648273408        7.9382264725        6.0117113853
 Ca        15.3227372314        6.1558686901        5.9326854534
  O         6.3929660071        2.5128083824        6.0442081868
  O         7.6933635129        4.7266717586        5.9685630448
  P         7.8395019707        3.1887422839        6.0005899793
 Ca        10.5355737666        1.9875349974        5.9225895213
 Ca         9.4234942427        5.4400284828        0.9993560877
 Ca        14.1352068323        2.7202017645        4.0079300447
 Ca        14.1339987767        2.7203914020        7.4963410799
 Ca         9.4240566432        5.4386554110        4.4546024041
  O         9.4259569775        0.0014455699        9.9689422574
  H         9.4163766762       -0.0082660082        8.9779406614
  O         9.5707554932        0.0897275023        5.1613544276
  H         9.3198513203       -0.0634673530        4.1344846530
  O         9.3826740888       -0.0649372004        6.8577748216
  H         9.4266604053        0.0275681621        7.8421321592
  O         9.4217332116       -0.0008318033        2.0168086192
  H         9.4301572225        0.0057549072        2.9902524630
  O        -2.8095095730       10.1809153899        1.2294684156
  O         2.0121240965        8.7998575560        1.2299607388
  O         0.7985366153       13.6653575246        1.2296009523
  O        -2.0091467762       14.2116736622        4.6740126312
  O        -6.6222105156       15.6482649225        4.6814464022
  O        -5.5291392876       10.9253312346        4.6827220308
  O        -1.9129599146       14.3280330524        7.1836479918
  O        -6.7140259043       15.6533868269        7.1962843380
  O        -5.4885170202       10.8459822443        7.2001733478
  O        -2.7195240729       10.2390295761        3.7533181182
  O         1.9293820863        8.8464863286        3.7575953386
  O         0.8023067846       13.5662187097        3.7565540076
  O        -4.0598495967       12.0431233407        2.4203301113
  O        -1.4853988541       12.0014184730        2.4756746099
  P        -2.7491505727       11.1112349861        2.4356285183
 Ca        -7.0623574149       16.3593798119        2.4938637031
  O         1.0241185230        6.7859310082        2.4217509582
  O        -0.2239035656        9.0354339733        2.4784780349
  P         1.1773106342        8.3844542326        2.4344542148
 Ca        -5.9266254292       10.1896162676        2.4922846627
  O         3.0363096447       13.8178370756        2.4226229187
  O         1.7125475896       11.6096065195        2.4777327695
  P         1.5724148103       13.1488487016        2.4351078102
 Ca        -1.1457996468       14.2594702106        2.5053213311
  O        -0.6575788362       12.4406938754        6.0451850950
  O        -3.2280902031       12.4570716775        5.9694042592
  P        -1.9729923928       13.3593573079        6.0052144249
 Ca         2.3766252809        8.1172936954        5.9270744906
  O        -5.7336092905       17.6914182179        6.0442704827
  O        -4.4679495116       15.4571741707        5.9618913101
  P        -5.8709065409       16.0999005078        6.0060045102
 Ca         1.1749131770       14.3251834898        5.9229342130
  O        11.1061894103       10.6727477035        6.0449357465
  O        -6.4429360783       12.8868308193        5.9637081019
  P        -6.2982428240       11.3510954784        6.0023320106
 Ca        -3.5909995797       10.1707108872        5.9270104687
 Ca        -4.7115710936       13.6014377320        0.9992307872
 Ca        -0.0023467720       10.8831692729        4.0079705720
 Ca        -0.0022358260       10.8827351198        7.4964219173
 Ca        -4.7076193289       13.6025045160        4.4540831305
  O        14.1478085579        8.1560537106        9.9622790193
  H        14.0919614353        8.1799445463        8.9703103728
  O        14.5341776720        8.0936310783        5.1226111048
  H        13.9129558286        8.2045093110        4.3674941181
  O        13.8854628926        8.2546890927        6.6980630149
  H        14.2132220978        8.1192736119        7.8070032421
  O        14.1284248081        8.1628334274        2.0297151072
  H        14.1702792717        8.1523973733        2.9910018539
  O         6.6145353474       10.1812923985        1.2293089140
  O        11.4362062830        8.8000923267        1.2298658002
  O        10.2222062771       13.6651916790        1.2292585636
  O         7.4013417714       14.2052927807        4.6689654476
  O         2.7922846969       15.6493220389        4.6874116276
  O         3.8954674308       10.9275917185        4.6825817938
  O         7.5177323597       14.3331604733        7.1774274057
  O         2.7156381655       15.6477202576        7.2077464263
  O         3.9362761189       10.8459071913        7.2001397573
  O         6.7040021589       10.2392905585        3.7536812324
  O        11.3546188667        8.8462597137        3.7574139853
  O        10.2279845372       13.5558962887        3.7531846623
  O         5.3641044217       12.0435034928        2.4211186275
  O         7.9382782406       12.0025816514        2.4761775634
  P         6.6747985518       11.1103860229        2.4358827853
 Ca         2.3655401148       16.3646332864        2.4861130353
  O        10.4484877198        6.7862268384        2.4218267737
  O         9.2008645548        9.0360343130        2.4787871653
  P        10.6013826138        8.3839168199        2.4346537545
 Ca         3.4960805328       10.1893481950        2.4924496063
  O        -6.3884047247       13.8166823524        2.4206750614
  O        11.1365425730       11.6085988703        2.4763344130
  P        10.9980192440       13.1485605557        2.4352770336
 Ca         8.2825872600       14.2605813340        2.5046029231
  O         8.7640215554       12.4422069791        6.0440030383
  O         6.1962537791       12.4639903690        5.9685319646
  P         7.4559601101       13.3525654356        6.0125276997
 Ca        11.7801240712        8.1174124322        5.9239924141
  O         3.6891695569       17.6876141424        6.0448784122
  O         4.9509138619       15.4558454771        5.9650037297
  P         3.5553401139       16.1088978604        5.9947502176
 Ca        10.6116663498       14.3445707182        5.9295331571
  O         1.6828065875       10.6731918493        6.0446874757
  O         2.9826756529       12.8882553793        5.9651464989
  P         3.1251618598       11.3500384916        6.0022013150
 Ca         5.8314351556       10.1613532010        5.9258015236
 Ca         4.7126507258       13.6016942066        0.9986894136
 Ca         9.4220402603       10.8826923956        4.0074324313
 Ca         9.4233561508       10.8809701476        7.4965853596
 Ca         4.7137920113       13.5976395900        4.4497543234
  O         4.7208442807        8.1563447512        9.9635835573
  H         4.6765847305        8.1807689476        8.9709046045
  O         5.0889511146        8.0701766118        5.1220570994
  H         4.5031134499        8.2165064459        4.3401242409
  O         4.4881714028        8.2797452487        6.7170458584
  H         4.7794041264        8.1126489203        7.8124214099
  O         4.7055762684        8.1630544588        2.0284318045
  H         4.7413433737        8.1515366001        2.9900952848
  O        -7.5212728223       18.3420044039        1.2297804412
  O        -2.7004749590       16.9606498016        1.2290106164
  O        -3.9142189170       21.8266731903        1.2296100593
  O        -6.7186205344       22.3753497831        4.6751311897
  O       -11.3196064277       23.8061372461        4.6783778503
  O       -10.2365847715       19.0851387119        4.6819836770
  O        -6.6267725350       22.4858190984        7.1861554624
  O       -11.4432530411       23.8208807272        7.1864048095
  O       -10.2026373648       19.0069644425        7.1985923183
  O        -7.4404181469       18.3887364094        3.7566517991
  O        -2.8017492687       17.0108031200        3.7526436056
  O        -3.9108204297       21.7270738375        3.7558365715
  O        -8.7716237204       20.2034632104        2.4215117334
  O        -6.1991161760       20.1586281378        2.4785943503
  P        -7.4639101944       19.2727303411        2.4349274640
 Ca       -11.7750975491       24.5221173372        2.5002999732
  O        -3.6891586179       14.9485056834        2.4194444016
  O        -4.9373912267       17.1978794989        2.4762566667
  P        -3.5358913285       16.5442736286        2.4340183300
 Ca       -10.6414947925       18.3451686669        2.4954510686
  O        -1.6760789995       21.9794135598        2.4208953779
  O        -3.0005292754       19.7709794459        2.4766106257
  P        -3.1390176221       21.3104182065        2.4353058624
 Ca        -5.8572769431       22.4218189053        2.5049670661
  O        -5.3712552286       20.6018561086        6.0445911501
  O        -7.9399217767       20.6233222771        5.9700707718
  P        -6.6838851529       21.5224575036        6.0043108008
 Ca        -2.3724268035       16.2861754786        5.9498229788
  O       -10.4455666061       25.8545517157        6.0445850641
  O        -9.1772142571       23.6199133026        5.9672055023
  P       -10.5823267534       24.2586512466        6.0048021900
 Ca        -3.5364038690       22.4964522048        5.9250872341
  O         6.3914833239       18.8334039250        6.0436072034
  O       -11.1538397946       21.0468419933        5.9610224476
  P       -11.0067149967       19.5109159357        6.0052249203
 Ca        -8.2700333513       18.4017017467        5.9207755008
 Ca        -9.4238658321       21.7647123846        0.9991862526
 Ca        -4.7091989433       19.0458825217        4.0100609746
 Ca        -4.7108048304       19.0440557940        7.4961072173
 Ca        -9.4211739728       21.7676953299        4.4558033598
  O        -9.4333808679       16.3114629800        9.9611914317
  H        -9.3917964885       16.3620543469        8.9726937682
  O        -9.6720318465       15.9476965888        5.1155189629
  H        -9.2906436774       16.5064641917        4.3977492376
  O        -9.2583958534       16.5338338269        6.6863093182
  H        -9.4765659622       16.2606559151        7.7948121718
  O        -9.4190518127       16.3294881244        2.0305767256
  H        -9.4471389990       16.2914283009        2.9922223075
  O         1.9026515241       18.3418047096        1.2298115174
  O         6.7233002979       16.9610147862        1.2295278958
  O         5.5101001024       21.8266290882        1.2289416247
  O         2.6963017284       22.3739078348        4.6720149168
  O        -1.9146187195       23.8098708746        4.6850235881
  O        -0.8158311940       19.1115262726        4.6774378595
  O         2.8047624610       22.4901438090        7.1815976379
  O        -2.0000324171       23.8122051228        7.2040369993
  O        -0.7753855440       18.9777435463        7.1848856124
  O         1.9872355903       18.3893920761        3.7567676536
  O         6.6284501196       17.0107265160        3.7550055574
  O         5.5167279010       21.7148599997        3.7525458590
  O         0.6533911475       20.2041166424        2.4204967256
  O         3.2258340379       20.1604937063        2.4779295800
  P         1.9607386024       19.2722040190        2.4352571317
 Ca        -2.3470258941       24.5261388324        2.4896471902
  O         5.7350978976       14.9475883078        2.4215246517
  O         4.4847890621       17.1964484827        2.4771004490
  P         5.8885340074       16.5477682331        2.4351595473
 Ca        -1.2151585971       18.3468165950        2.5063247610
  O       -11.1006608561       21.9776526475        2.4196765100
  O         6.4233332374       19.7710519213        2.4764803474
  P         6.2871729472       21.3111924524        2.4339915344
 Ca         3.5676153270       22.4214815899        2.5077536176
  O         4.0536595471       20.5999061270        6.0442179208
  O         1.4851394660       20.6216446269        5.9699815011
  P         2.7395517370       21.5189430795        6.0065105386
 Ca         7.1006581858       16.3010918648        5.9324677998
  O        -1.0215325382       25.8505278672        6.0450337466
  O         0.2413214776       23.6198567179        5.9663814216
  P        -1.1557952118       24.2678192402        5.9968458292
 Ca         5.9188663557       22.4779038347        5.9374671093
  O        -3.0329974351       18.8344168867        6.0439782112
  O        -1.7333227667       21.0517446407        5.9696041161
  P        -1.5813749018       19.5133447907        6.0009759088
 Ca         1.1135639313       18.3576636266        5.9217072810
 Ca        -0.0003721996       21.7637155009        0.9995232727
 Ca         4.7122117625       19.0448303785        4.0070816072
 Ca         4.7132381702       19.0478169922        7.4968236286
 Ca         0.0013810923       21.7568478841        4.4540844124
  O        -0.0128650511       16.3234620724        9.9619778772
  H         0.0482425855       16.3198223024        8.9719149915
  O        -0.3540696030       16.3256766775        5.1172516703
  H         0.2374207022       16.3292386618        4.3591736138
  O         0.3243512354       16.3178015220        6.7004724946
  H        -0.0852223428       16.3333303360        7.8052531065
  O         0.0071565511       16.3232504394        2.0304255283
  H        -0.0352065280       16.3222641338        2.9910731105
  O       -12.2333794468       26.5032756440        1.2301440502
  O        -7.4127692845       25.1214933348        1.2290266827
  O        -8.6258357702       29.9872523199        1.2294260439
  O       -11.4197098820       30.5485713742        4.6803333818
  O       -16.0269533955       31.9650335671        4.6784716792
  O       -14.9481161121       27.2414530401        4.6855977907
  O       -11.3554342370       30.6341357393        7.1930455501
  O       -16.1535263939       31.9830151452        7.1870524582
  O       -14.9096946789       27.1733458053        7.2056365480
  O       -12.1523369461       26.5531011710        3.7572929901
  O        -7.5123019804       25.1718436594        3.7523458387
  O        -8.6225640501       29.8830968938        3.7530353284
  O       -13.4844060916       28.3649237519        2.4219574260
  O       -10.9110680528       28.3216963071        2.4783348641
  P       -12.1744368924       27.4339940463        2.4341616141
 Ca       -16.4870704520       32.6846466923        2.5019930324
  O        -8.4010463624       23.1091926714        2.4194804361
  O        -9.6498156016       25.3587155036        2.4756452813
  P        -8.2479697026       24.7066977348        2.4350874801
 Ca       -15.3552880767       26.5096958786        2.4893389937
  O        -6.3882907302       30.1394973015        2.4201341093
  O        -7.7116604204       27.9314601520        2.4757634027
  P        -7.8513806082       29.4724233190        2.4368555132
 Ca       -10.5671628007       30.5822006676        2.5005544335
  O       -10.0858337167       28.7639090938        6.0440784160
  O       -12.6528681171       28.7833942902        5.9661412404
  P       -11.3930565022       29.6798574734        6.0040714765
 Ca        -7.0570878559       24.4471010286        5.9390296074
  O         3.6910329022        1.3705353636        6.0444580442
  O       -13.8880093174       31.7810750773        5.9677938981
  P       -15.2932100523       32.4204278241        6.0044160118
 Ca        -8.2596227713       30.6949800417        5.9225754462
  O         1.6838187992       26.9951909893        6.0446809181
  O       -15.8623668520       29.2049803543        5.9643575047
  P       -15.7264907240       27.6716567667        5.9970079029
 Ca       -12.9840605467       26.5298876375        5.9233464743
 Ca       -14.1357122136       29.9263402979        0.9990203750
 Ca        -9.4218716630       27.2068625783        4.0095553698
 Ca        -9.4225054730       27.2049180135        7.4958706064
 Ca       -14.1332540842       29.9320012405        4.4528732643
  O         4.7115557840       24.4715862690        9.9620681309
  H         4.7121081172       24.5301189964        8.9719733498
  O         4.6496789188       24.0967370854        5.1181598846
  H         4.7337658118       24.7088354575        4.3595371668
  O         4.6908239325       24.7713732002        6.7108588848
  H         4.7184720193       24.3984109417        7.8070217728
  O         4.7125947884       24.4913529322        2.0296563923
  H         4.7103849487       24.4495012720        2.9908263172
  O        -2.8088355676       26.5029246731        1.2298535623
  O         2.0117766909       25.1228906301        1.2298341889
  O         0.7985810307       29.9876852058        1.2289384487
  O        -2.0091889175       30.5390870786        4.6748104892
  O        -6.6000968218       31.9642537822        4.6778978836
  O        -5.5295987269       27.2723307258        4.6776987191
  O        -1.9150791744       30.6442306372        7.1859722720
  O        -6.7228501651       31.9845093646        7.1911827022
  O        -5.4882746082       27.1437086310        7.1865185674
  O        -2.7235799254       26.5527054860        3.7565401869
  O         1.9226517424       25.1723382048        3.7562109463
  O         0.8048935039       29.8773091071        3.7526735610
  O        -4.0587742291       28.3651637544        2.4201605230
  O        -1.4858147318       28.3223482291        2.4772809306
  P        -2.7508379920       27.4337709150        2.4354666167
 Ca        -7.0676824668       32.6863301829        2.5046344743
  O         1.0236012375       23.1095871965        2.4208537455
  O        -0.2258282993       25.3581872363        2.4777106997
  P         1.1770697326       24.7082498635        2.4356593327
 Ca        -5.9270333295       26.5080130714        2.5057990334
  O       -15.8126072860       30.1385103303        2.4204241646
  O         1.7125929707       27.9318105287        2.4769245980
  P         1.5743319922       29.4725742300        2.4346949981
 Ca        -1.1444733952       30.5827721463        2.5075420116
  O        -0.6574807879       28.7615024809        6.0451365706
  O        -3.2272769773       28.7812660559        5.9689799910
  P        -1.9742963036       29.6812079993        6.0045486713
 Ca         2.4200959105       24.4403574209        5.9216582545
  O        13.1171383685        1.3686402711        6.0439379194
  O        -4.4673887685       31.7813001883        5.9690290578
  P        -5.8713174850       32.4254421789        6.0034525435
 Ca         1.1859113220       30.6623289206        5.9294543720
  O        -7.7438924974       26.9953994605        6.0441917741
  O        -6.4429215549       29.2111665904        5.9688601547
  P        -6.2952945337       27.6763543810        6.0011396427
 Ca        -3.6005082035       26.5045053994        5.9221888556
 Ca        -4.7125631008       29.9251855068        0.9996853708
 Ca        -0.0020441968       27.2063388110        4.0063775999
 Ca        -0.0023226369       27.2079717844        7.4969891957
 Ca        -4.7111848500       29.9219642540        4.4545120691
  O        -4.7201015889       24.4837901219        9.9643544531
  H        -4.6777955649       24.4842112292        8.9712707984
  O        -5.0554641103       24.5041034486        5.1235971721
  H        -4.4913494651       24.4687257032        4.3161401750
  O        -4.4318621166       24.4760802742        6.7299620724
  H        -4.7873776212       24.4847321321        7.8164958402
  O        -4.7062024200       24.4840056011        2.0278900919
  H        -4.7397128826       24.4862035224        2.9897006887
  O         0.4219565637       15.1338323842       16.0658389657
  C         0.0869104067       16.3240793282       16.0565180633
  O        -0.2302915711       17.4839338585       16.0622436803
     387
 i =       15, E =     -6919.3932608338
  O         1.9088643574        2.0327931146        1.2292168521
  O         6.7072030935        0.6375800983        1.2276137124
  O         5.5176746820        5.4916037553        1.2286933242
  O         2.7330206886        6.0693660713        4.6899369957
  O        -1.8518623159        7.4770126606        4.6772961285
  O        -0.8244085802        2.7461507132        4.6951705293
  O         2.7814682789        6.1465848964        7.1887674937
  O        -2.0507774365        7.5084071616        7.1672190598
  O        -0.7788394404        2.7066749630        7.2082700361
  O         1.9662047127        2.0606102578        3.7450367471
  O         6.6415369156        0.6779408045        3.7426961429
  O         5.5185934312        5.4069278536        3.7440052557
  O         0.6354620416        3.8697456480        2.4409333239
  O         3.2340260388        3.8446486551        2.4619659342
  P         1.9660705351        2.9546953424        2.4376335553
 Ca        -2.3575640099        8.1909431354        2.4764893679
  O       -13.0944003238       31.2625305681        2.4383481686
  O         4.4747900711        0.8784067795        2.4568737434
  P         5.8796703407        0.2251960319        2.4430283114
 Ca        -1.2088260772        2.0345889921        2.4540023115
  O         7.7444741176        5.6746863833        2.4378719279
  O         6.4266352537        3.4357332316        2.4586132969
  P         6.2904509237        4.9774569174        2.4376335315
 Ca         3.5559626952        6.0995604346        2.4671163470
  O         4.0719312067        4.3009675073        6.0187127320
  O         1.4698784977        4.2756078828        5.9806824699
  P         2.7291037380        5.1925158271        6.0165218302
 Ca         7.1541295788       -0.0161657863        5.9375038355
  O        -1.0462264483        9.5372972004        6.0208578604
  O         0.2632261756        7.2925381632        5.9957003858
  P        -1.1554364224        7.9356000769        6.0175303236
 Ca         5.9062618476        6.0875676205        5.9572959431
  O        15.8303028714        2.4864083134        6.0203742019
  O        -1.7342839083        4.7374653062        5.9882680552
  P        -1.5908119360        3.1920173110        6.0000483247
 Ca         1.1679695726        2.0271877569        5.9337585672
 Ca        -0.0006030863        5.4409956512        0.9612781675
 Ca         4.7127723528        2.7177844289        4.0206525217
 Ca         4.7113060550        2.7169622329        7.5435286379
 Ca         0.0074611071        5.4423027982        4.4405503145
  O         0.0017347554       -0.0125038981        9.8797586360
  H        -0.0086035009        0.0503193438        8.8853668447
  O        -0.0330556383       -0.4440836090        5.1058856165
  H         0.0031452407        0.2739762095        4.3789150180
  O        -0.0870250877        0.3720605574        6.8332195212
  H         0.0368029772       -0.1059827262        7.7103928993
  O        -0.0009551347        0.0103423982        2.1361147992
  H         0.0032905238       -0.0388985682        3.1134208547
  O        11.3342004772        2.0346114919        1.2257656216
  O        16.1330134947        0.6396931161        1.2292913969
  O        14.9418095468        5.4916237499        1.2288356213
  O        12.1645055007        6.0750483090        4.6909720892
  O         7.5692476869        7.4788469758        4.6778114810
  O         8.5825643004        2.7888128757        4.6904500911
  O        12.1979977447        6.1416825876        7.1943213588
  O         7.3772390583        7.5083479365        7.1718849460
  O         8.6440576540        2.6755645727        7.1908992073
  O        11.4090778361        2.0792914037        3.7377193263
  O        16.0728456830        0.6792192071        3.7439722041
  O        14.9416006331        5.4076503162        3.7449101885
  O        10.0610455964        3.8707943227        2.4379044156
  O        12.6601393298        3.8476979576        2.4577869384
  P        11.3921462098        2.9571044925        2.4426438064
 Ca         7.0665638782        8.1896330150        2.4782984711
  O        -3.6694387717       31.2651666763        2.4384688068
  O        13.9005397748        0.8790780827        2.4607647013
  P        15.3048794039        0.2237137359        2.4393054512
 Ca         8.2295569499        2.0205902355        2.4786367970
  O        -1.6789908356        5.6739486400        2.4390168873
  O        15.8512937807        3.4348663607        2.4601641773
  P        15.7127886587        4.9783983302        2.4371287175
 Ca        12.9811511656        6.1002523398        2.4642987831
  O        13.4981047721        4.3019743193        6.0201362854
  O        10.8953217424        4.2806116946        5.9800197788
  P        12.1535057816        5.1915779771        6.0134931782
 Ca        16.5659087642       -0.0356886782        5.9269934739
  O         8.3781709049        9.5367029203        6.0212334108
  O         9.6847432928        7.2923164363        5.9945977013
  P         8.2681582648        7.9360122755        6.0174472250
 Ca        15.3256690768        6.0881800974        5.9542147114
  O         6.4046337239        2.4890711278        6.0199480772
  O         7.6848409560        4.7461142492        5.9958669904
  P         7.8335306028        3.1961167182        5.9967444244
 Ca        10.5515327007        1.9676743619        5.9347527289
 Ca         9.4231678473        5.4393236420        0.9614990393
 Ca        14.1330374889        2.7197356178        4.0165305610
 Ca        14.1284792706        2.7192416174        7.5452992671
 Ca         9.4267522118        5.4356047873        4.4434007089
  O         9.4271181475        0.0039270293        9.8908130311
  H         9.4155120103       -0.0188469343        8.9207765713
  O         9.6643235796        0.1098869929        5.0672531416
  H         9.2523138075       -0.0770733390        4.1085712601
  O         9.3909905667       -0.1498816161        6.9890162624
  H         9.3854221743        0.0808833087        7.8543630134
  O         9.4183436421       -0.0012498618        2.1151604592
  H         9.4344156575        0.0120165528        3.0912931164
  O        -2.8032267270       10.1929341897        1.2290726539
  O         1.9984921925        8.8003443455        1.2296117621
  O         0.8068245506       13.6535517675        1.2295007136
  O        -2.0091217214       14.1952013884        4.6806941364
  O        -6.6285407955       15.6646612360        4.6950107159
  O        -5.5408400437       10.9093373048        4.6958795895
  O        -1.9063853170       14.3367282717        7.1735529120
  O        -6.6982162939       15.6476044642        7.2011365304
  O        -5.4953380130       10.8655769679        7.2052778149
  O        -2.7313115239       10.2362877540        3.7436892704
  O         1.9545915683        8.8347418934        3.7458804549
  O         0.8049898379       13.5862510000        3.7461208749
  O        -4.0759171025       12.0315674080        2.4390820044
  O        -1.4748742322       12.0095862446        2.4586432443
  P        -2.7432789700       11.1189980817        2.4367363282
 Ca        -7.0629244232       16.3424292784        2.4583467576
  O         1.0424265674        6.7780766965        2.4417854111
  O        -0.2314440377        9.0398835608        2.4655659508
  P         1.1718137798        8.3855992017        2.4368771393
 Ca        -5.9126759104       10.1993824413        2.4538132132
  O         3.0341016769       13.8378629862        2.4448964091
  O         1.7141753232       11.5984292629        2.4638390296
  P         1.5752366150       13.1426976554        2.4365398327
 Ca        -1.1588289629       14.2690325895        2.4788206228
  O        -0.6382370951       12.4616778113        6.0233220539
  O        -3.2406357481       12.4330373003        5.9964100531
  P        -1.9832590052       13.3569573740        6.0111593899
 Ca         2.3205429346        8.1201006179        5.9303336712
  O        -5.7605207361       17.6961075766        6.0218383110
  O        -4.4540263378       15.4534381751        5.9810211371
  P        -5.8709366258       16.0957307252        6.0096539635
 Ca         1.1609107043       14.2759498538        5.9210984475
  O        11.1149730217       10.6454508451        6.0228591331
  O        -6.4532761356       12.9046327201        5.9842527293
  P        -6.2978499563       11.3587585882        6.0070097944
 Ca        -3.5664420707       10.1885960741        5.9395253595
 Ca        -4.7110107718       13.6006240009        0.9612047540
 Ca        -0.0058561896       10.8849113042        4.0158874228
 Ca        -0.0058575287       10.8848442091        7.5440231609
 Ca        -4.7016046797       13.6018729666        4.4414477174
  O        14.1585153313        8.1521690980        9.8716577678
  H        14.0569352464        8.1940567611        8.8669755775
  O        14.6022509067        8.1074844162        5.1809925706
  H        13.8827433503        8.2042536532        4.4699687244
  O        13.8658958357        8.2968059088        6.7269069534
  H        14.2261158717        8.1069114593        7.6734716888
  O        14.1245050333        8.1634802437        2.1447254898
  H        14.1835541815        8.1486165714        3.1202432180
  O         6.6208364576       10.1936871738        1.2289326310
  O        11.4222502241        8.8005635909        1.2297823913
  O        10.2296597248       13.6537272251        1.2281011076
  O         7.3925864737       14.1809639946        4.6759814640
  O         2.7716160265       15.6680402175        4.7010759390
  O         3.8842165682       10.9129601281        4.6957550704
  O         7.5257789022       14.3459282616        7.1639707328
  O         2.7384817023       15.6392427342        7.2142583864
  O         3.9306877828       10.8666790161        7.2062451171
  O         6.6918770730       10.2366124755        3.7443451457
  O        11.3801126480        8.8342233405        3.7447761511
  O        10.2331227450       13.5638073441        3.7440119090
  O         5.3476594292       12.0321162383        2.4409425804
  O         7.9473227070       12.0109688350        2.4594879078
  P         6.6818830127       11.1194199353        2.4370897726
 Ca         2.3673163582       16.3522961498        2.4407685664
  O        10.4667177834        6.7781119508        2.4419765180
  O         9.1931732421        9.0408876756        2.4661533537
  P        10.5974166366        8.3854131201        2.4364910534
 Ca         3.5085817764       10.1991890371        2.4532724384
  O        -6.3901935662       13.8360661808        2.4393068276
  O        11.1390261367       11.5950132375        2.4596894214
  P        11.0018938332       13.1396327652        2.4373649548
 Ca         8.2730358772       14.2697365052        2.4756287283
  O         8.7848052658       12.4608558194        6.0218335299
  O         6.1803019540       12.4414912602        5.9951326427
  P         7.4474423212       13.3524638159        6.0170004123
 Ca        11.7087735332        8.1225760966        5.9226925223
  O         3.6600628166       17.6937572103        6.0227735609
  O         4.9610355524       15.4530669709        5.9896530676
  P         3.5569264257       16.1069647550        5.9971605810
 Ca        10.6240655502       14.3131106821        5.9457404805
  O         1.6929755205       10.6463446575        6.0223034456
  O         2.9737406744       12.9069094806        5.9874033193
  P         3.1243442090       11.3589795531        6.0056483485
 Ca         5.8547262855       10.1677663740        5.9363657791
 Ca         4.7135511739       13.6013147428        0.9604292136
 Ca         9.4196385325       10.8844054287        4.0146010495
 Ca         9.4223710976       10.8811399155        7.5444775409
 Ca         4.7175674985       13.5913776047        4.4323528194
  O         4.7292019067        8.1526119458        9.8748850083
  H         4.6473145011        8.1964542433        8.8722678058
  O         5.1611699263        8.0816648276        5.1502515863
  H         4.4640355467        8.2176492639        4.4469871632
  O         4.4355734023        8.3632733785        6.7582158876
  H         4.7961229573        8.0905149831        7.6816565940
  O         4.7016166123        8.1639398128        2.1411665249
  H         4.7545684420        8.1469365911        3.1183164182
  O        -7.5141505056       18.3530384670        1.2282339904
  O        -2.7136457269       16.9597109377        1.2278755127
  O        -3.9067830062       21.8149399278        1.2294164695
  O        -6.7182865520       22.3583229888        4.6798097840
  O       -11.3160852617       23.8187039857        4.6871330837
  O       -10.2467121177       19.0677651117        4.6952330772
  O        -6.6204388082       22.4936076771        7.1787453844
  O       -11.4484047193       23.8182109249        7.1797233058
  O       -10.2071717461       19.0261619243        7.2045520774
  O        -7.4634014726       18.3733943214        3.7423777494
  O        -2.8002896563       17.0023344727        3.7461939136
  O        -3.9091244650       21.7480388623        3.7450682514
  O        -8.7881714822       20.1911627234        2.4412637268
  O        -6.1904821369       20.1619052807        2.4649283438
  P        -7.4605784186       19.2762682238        2.4387319917
 Ca       -11.7757336875       24.5047714659        2.4694474649
  O        -3.6718991143       14.9388255779        2.4366614433
  O        -4.9487362175       17.2025499385        2.4593745740
  P        -3.5469303992       16.5472833925        2.4340398305
 Ca       -10.6296692418       18.3501104138        2.4609486614
  O        -1.6783239959       21.9998781108        2.4409923432
  O        -2.9991724666       19.7600266122        2.4616268261
  P        -3.1367242871       21.3027595341        2.4368147739
 Ca        -5.8698124974       22.4311055026        2.4794872995
  O        -5.3533878167       20.6211989333        6.0217529392
  O        -7.9529640232       20.6088510675        5.9968154729
  P        -6.6905941721       21.5255219411        6.0103518875
 Ca        -2.4759251858       16.3006536065        5.9884685203
  O       -10.4735157460       25.8597755776        6.0213550546
  O        -9.1583510576       23.6186832310        5.9909132185
  P       -10.5782444811       24.2532171740        6.0115151533
 Ca        -3.5501529889       22.4536924395        5.9263019003
  O         6.4000018753       18.8059319776        6.0197336020
  O       -11.1617109048       21.0614905592        5.9785725455
  P       -11.0026147854       19.5145425473        6.0106653848
 Ca        -8.2172825754       18.4677457532        5.9163607504
 Ca        -9.4230550531       21.7651981033        0.9613056676
 Ca        -4.7061630555       19.0490018837        4.0200794412
 Ca        -4.7094407223       19.0477413249        7.5434450143
 Ca        -9.4157196148       21.7724504772        4.4454487584
  O        -9.4416899751       16.3015917500        9.8716992118
  H        -9.3672327931       16.3926277088        8.8687509124
  O        -9.6783423678       15.8976383582        5.1896197076
  H        -9.2862131736       16.5135156092        4.4943603974
  O        -9.2532907049       16.5146884267        6.7092928299
  H        -9.4807298135       16.2544140416        7.6510993623
  O        -9.4169941364       16.3321504177        2.1454819996
  H        -9.4547669847       16.2817973924        3.1231536146
  O         1.9101963393       18.3535318730        1.2297412284
  O         6.7090004037       16.9608204362        1.2289143227
  O         5.5172647252       21.8157240795        1.2273145316
  O         2.6911063707       22.3532387081        4.6773382851
  O        -1.9313112372       23.8294059496        4.6989516736
  O        -0.8276413212       19.1175817453        4.6828663881
  O         2.8139773136       22.4982757731        7.1703229874
  O        -1.9792410737       23.8043862812        7.2120881541
  O        -0.7765565210       18.9689657058        7.1750673595
  O         1.9676815455       18.3743938411        3.7448807042
  O         6.6357040672       17.0023854866        3.7461026659
  O         5.5231876134       21.7203468152        3.7442286303
  O         0.6381027494       20.1922053350        2.4396264648
  O         3.2342794793       20.1648645680        2.4639907280
  P         1.9660043121       19.2759699542        2.4376544612
 Ca        -2.3439736619       24.5136068402        2.4458150942
  O         5.7525175404       14.9401624174        2.4415405645
  O         4.4719102763       17.2003352373        2.4618783552
  P         5.8801567578       16.5495726546        2.4378406950
 Ca        -1.2023803371       18.3535365451        2.4813217075
  O       -11.1020781353       21.9971651400        2.4372795346
  O         6.4252316143       19.7586216478        2.4595965867
  P         6.2914841814       21.3009833432        2.4348425132
 Ca         3.5556149371       22.4304088775        2.4834693706
  O         4.0719874444       20.6196756803        6.0211945545
  O         1.4724625694       20.6005499014        5.9970122181
  P         2.7329986340       21.5158100224        6.0120840175
 Ca         7.0527088064       16.3339640254        5.9526547740
  O        -1.0514232287       25.8553841015        6.0228813855
  O         0.2554551360       23.6194850362        5.9918188271
  P        -1.1494134766       24.2677097239        5.9966148831
 Ca         5.9532747839       22.4106792941        5.9641038477
  O        -3.0239633839       18.8075913113        6.0197708783
  O        -1.7474950363       21.0748531185        5.9951447067
  P        -1.5809518523       19.5234854808        6.0082255643
 Ca         1.1271089801       18.3925776548        5.9193174888
 Ca        -0.0004021134       21.7632967304        0.9619551214
 Ca         4.7119880652       19.0476987583        4.0131749269
 Ca         4.7137146512       19.0547452787        7.5458150889
 Ca         0.0033405373       21.7465294554        4.4420413992
  O        -0.0251687111       16.3239002716        9.8707418936
  H         0.0873013622       16.3179390119        8.8705512061
  O        -0.3594804256       16.3290605246        5.1865197754
  H         0.2945025135       16.3334957122        4.4361191437
  O         0.4077159709       16.3168654995        6.7377478090
  H        -0.0875433506       16.3375580851        7.6643332722
  O         0.0110150760       16.3232525423        2.1440266150
  H        -0.0511345418       16.3221160809        3.1214810011
  O       -12.2264130273       26.5148185956        1.2294826839
  O        -7.4266146913       25.1202039796        1.2280916831
  O        -8.6186257854       29.9749798981        1.2270174315
  O       -11.4091860583       30.5394877407        4.6909463549
  O       -16.0191597264       31.9762469292        4.6872776903
  O       -14.9547918874       27.2159140821        4.6997021803
  O       -11.3699828692       30.6216646242        7.1934019141
  O       -16.1581720339       31.9800021616        7.1808992213
  O       -14.9118653602       27.1974533804        7.2123318512
  O       -12.1756910613       26.5401890748        3.7446276504
  O        -7.5104293164       25.1636268966        3.7440976769
  O        -8.6205031035       29.8953624408        3.7404710907
  O       -13.5007649635       28.3522551545        2.4431346587
  O       -10.9036056886       28.3255924253        2.4649760769
  P       -12.1711570632       27.4390345244        2.4368883697
 Ca       -16.4876563966       32.6681148892        2.4729664146
  O        -8.3840464248       23.1002794774        2.4361561852
  O        -9.6619095578       25.3636640544        2.4584628857
  P        -8.2579347812       24.7077073010        2.4348017120
 Ca       -15.3456900150       26.5154478954        2.4475917236
  O        -6.3892214022       30.1598812630        2.4389735516
  O        -7.7089418620       27.9189543056        2.4589648491
  P        -7.8495344704       29.4620754871        2.4413023209
 Ca       -10.5740411311       30.5933368240        2.4696998812
  O       -10.0712032055       28.7842177467        6.0195272033
  O       -12.6673036954       28.7660746106        5.9876771829
  P       -11.3979334570       29.6742555137        6.0101190337
 Ca        -7.1497929485       24.4583625430        5.9710823331
  O         3.6626296270        1.3763351175        6.0212494661
  O       -13.8602593347       31.7811128512        5.9917676442
  P       -15.2819259655       32.4141974451        6.0098301869
 Ca        -8.2969564628       30.7131707511        5.9313986425
  O         1.6936207315       26.9665553750        6.0221038238
  O       -15.8669034351       29.2163223817        5.9874051882
  P       -15.7256269018       27.6738375716        5.9988981848
 Ca       -12.9239629088       26.5710180438        5.9213524865
 Ca       -14.1351287224       29.9276046221        0.9605646112
 Ca        -9.4176257625       27.2104756773        4.0201523849
 Ca        -9.4195767251       27.2076901468        7.5435051445
 Ca       -14.1293911834       29.9428492894        4.4404426181
  O         4.7113980067       24.4602780613        9.8714714644
  H         4.7117045635       24.5674645291        8.8737151242
  O         4.5966492363       24.0382561293        5.1638423008
  H         4.7510155308       24.7434773258        4.4583187716
  O         4.6455806569       24.8387835543        6.7563200421
  H         4.7300244335       24.3883379011        7.6678272628
  O         4.7133910221       24.4952322959        2.1436373970
  H         4.7096548876       24.4345262851        3.1202699464
  O        -2.8012957520       26.5145911284        1.2301099085
  O         1.9976294305       25.1237864523        1.2295647326
  O         0.8062930600       29.9764187287        1.2275817446
  O        -2.0122321859       30.5199866935        4.6816470794
  O        -6.5861836145       31.9780513141        4.6869581296
  O        -5.5416897366       27.2775135634        4.6843281912
  O        -1.9072120525       30.6487358821        7.1804264690
  O        -6.7106871829       31.9825536301        7.1925550204
  O        -5.4892356849       27.1352343415        7.1792084116
  O        -2.7417424996       26.5386973173        3.7454947491
  O         1.9372465562       25.1639167111        3.7453658113
  O         0.8117310360       29.8822610623        3.7439602464
  O        -4.0734846668       28.3532344246        2.4390683851
  O        -1.4767176312       28.3273899760        2.4629441762
  P        -2.7462940749       27.4379166071        2.4369733190
 Ca        -7.0790583358       32.6712024726        2.4791286769
  O         1.0413483255       23.1023752988        2.4397529423
  O        -0.2363120052       25.3623556266        2.4636500949
  P         1.1706220705       24.7106990107        2.4388213566
 Ca        -5.9142040989       26.5153125607        2.4808442955
  O       -15.8135723316       30.1575568732        2.4390033135
  O         1.7148796463       27.9194876083        2.4611124381
  P         1.5783544246       29.4630247236        2.4347943918
 Ca        -1.1559818434       30.5918165518        2.4846975877
  O        -0.6399015046       28.7832583474        6.0232279498
  O        -3.2398013154       28.7580493726        5.9954406136
  P        -1.9832712245       29.6729759796        6.0057587951
 Ca         2.4096839528       24.4479139648        5.9249566805
  O        13.0914513107        1.3734704429        6.0190185789
  O        -4.4452224573       31.7807267816        5.9926675864
  P        -5.8609754630       32.4259629365        6.0109496834
 Ca         1.2068995859       30.6069616221        5.9516152844
  O        -7.7345992738       26.9674116752        6.0204543880
  O        -6.4552647417       29.2346860555        5.9940196666
  P        -6.2968505379       27.6907173388        6.0041975719
 Ca        -3.5892054556       26.5274520979        5.9212053921
 Ca        -4.7140869044       29.9244928702        0.9622555858
 Ca        -0.0050326564       27.2083608855        4.0113846679
 Ca        -0.0055613361       27.2129211008        7.5463605855
 Ca        -4.7108336062       29.9141608344        4.4442374321
  O        -4.7282313490       24.4840702822        9.8759849022
  H        -4.6476288899       24.4841747517        8.8764784840
  O        -5.0976205865       24.5118904697        5.1418174868
  H        -4.4338359491       24.4668503935        4.4173852364
  O        -4.2775788070       24.4704358929        6.7779883317
  H        -4.8135228748       24.4889477927        7.6850304350
  O        -4.7020104533       24.4836674346        2.1394084373
  H        -4.7545328374       24.4878065704        3.1174116047
  O         0.4144447163       15.1712366375       16.0642333393
  C         0.1001901057       16.2891502239       16.0583192348
  O        -0.2319408295       17.4861761056       16.0689410630
     387
 i =       16, E =     -6919.4886975757
  O         1.9028796693        2.0322606842        1.2238334574
  O         6.7086193706        0.6323671377        1.2251459488
  O         5.5210402040        5.4962425454        1.2247419879
  O         2.7349687879        6.0606850720        4.6998888802
  O        -1.8304617764        7.4760247336        4.6775275733
  O        -0.8325415171        2.7384398130        4.7067519542
  O         2.7847201144        6.1516114183        7.1972490125
  O        -2.0712131006        7.5091725729        7.1639594759
  O        -0.7776965203        2.7196525175        7.2218790081
  O         1.9555381138        2.0579375550        3.7331431972
  O         6.6454090421        0.6717499453        3.7338724162
  O         5.5254950922        5.4079128934        3.7337904440
  O         0.6312226863        3.8616214612        2.4466459100
  O         3.2278455852        3.8510269120        2.4619162146
  P         1.9602998058        2.9596274496        2.4375506024
 Ca        -2.3576342515        8.1883832766        2.4631950716
  O       -13.0859271328       31.2636551067        2.4437105305
  O         4.4693067177        0.8699297712        2.4559837027
  P         5.8763062322        0.2185501552        2.4381789723
 Ca        -1.2063053794        2.0365435644        2.4327627567
  O         7.7399108427        5.6810152928        2.4420262970
  O         6.4387978855        3.4323211671        2.4568506920
  P         6.2976544129        4.9790043910        2.4363397839
 Ca         3.5523970147        6.1013269245        2.4522647096
  O         4.0783189063        4.3084533949        6.0120668096
  O         1.4784183192        4.2705570689        5.9822025243
  P         2.7300043548        5.1833602806        6.0093107208
 Ca         7.1683809131       -0.0126185189        5.9456773355
  O        -1.0557976596        9.5367399144        6.0158704801
  O         0.2575538988        7.3001989749        6.0025101887
  P        -1.1487254937        7.9411709166        6.0128097016
 Ca         5.9111659026        6.0469888687        5.9679422971
  O        15.8350756538        2.4768885497        6.0141550643
  O        -1.7381064439        4.7290930320        5.9907011958
  P        -1.5993192749        3.1896374234        5.9930206667
 Ca         1.1963509144        2.0444750615        5.9361409733
 Ca        -0.0006894236        5.4415472121        0.9682299567
 Ca         4.7124769901        2.7167838057        4.0214251630
 Ca         4.7099315543        2.7146868293        7.5453339998
 Ca         0.0115871640        5.4446589407        4.4382458935
  O         0.0032632048       -0.0177130242        9.8524301184
  H        -0.0139158267        0.0743392945        8.8709148202
  O        -0.0617345170       -0.4764880929        5.0690032437
  H         0.0104817308        0.2948822515        4.4365575723
  O        -0.1227487441        0.4630419470        6.8638688630
  H         0.0526698043       -0.1402614194        7.6767801437
  O        -0.0005996117        0.0115092512        2.1804725803
  H         0.0039366836       -0.0516828036        3.1520699945
  O        11.3288353712        2.0377096336        1.2240973408
  O        16.1350168974        0.6353320954        1.2240098264
  O        14.9447862120        5.4968362924        1.2245997161
  O        12.1712164010        6.0700483575        4.7007989105
  O         7.5910958976        7.4784860279        4.6792830857
  O         8.5737999268        2.7960581582        4.6908988202
  O        12.1972548336        6.1438892171        7.2027538293
  O         7.3584948725        7.5100176644        7.1687454363
  O         8.6422939838        2.6700983720        7.1923152650
  O        11.4073532714        2.0849405039        3.7277675462
  O        16.0769764460        0.6724458507        3.7307836700
  O        14.9477849947        5.4099710147        3.7355395849
  O        10.0570580672        3.8632532381        2.4425521909
  O        12.6567380256        3.8587669993        2.4553632338
  P        11.3886926421        2.9633476489        2.4349413079
 Ca         7.0653656985        8.1870089686        2.4661481643
  O        -3.6612004404       31.2648882728        2.4417561479
  O        13.8949225432        0.8697488983        2.4593222685
  P        15.3033529095        0.2193597094        2.4408177855
 Ca         8.2359401523        2.0203226682        2.4661111285
  O        -1.6840105003        5.6797519315        2.4438610487
  O        15.8621616583        3.4338606823        2.4587512503
  P        15.7207452063        4.9788265810        2.4354446058
 Ca        12.9776404263        6.1019832738        2.4485197663
  O        13.5067386942        4.3107240842        6.0142224736
  O        10.9035117340        4.2729970607        5.9803198613
  P        12.1520072079        5.1816428858        6.0086434727
 Ca        16.5618328108       -0.0377364020        5.9282637475
  O         8.3692988015        9.5362555571        6.0162816214
  O         9.6776067996        7.2982252115        6.0011819889
  P         8.2699931370        7.9411434102        6.0143703590
 Ca        15.3305230989        6.0467345632        5.9647141457
  O         6.4047734756        2.4801293328        6.0124348907
  O         7.6798921191        4.7387205511        6.0003521184
  P         7.8282200756        3.2005381038        6.0022664621
 Ca        10.5610204485        1.9619132369        5.9421579215
 Ca         9.4229478116        5.4390558123        0.9693254528
 Ca        14.1308561998        2.7188111037        4.0159988848
 Ca        14.1237138218        2.7172980344        7.5472968848
 Ca         9.4286761951        5.4334157724        4.4427643258
  O         9.4266599275        0.0081571004        9.9003787150
  H         9.4169444540       -0.0363670077        8.9166504608
  O         9.6992996508        0.1132154451        4.9686054656
  H         9.2213403578       -0.0793863794        4.1313307507
  O         9.3816054881       -0.2351824514        6.9524500156
  H         9.3606209363        0.1642816945        7.9800112589
  O         9.4146428041       -0.0021394136        2.1365009226
  H         9.4465811242        0.0203148786        3.1100482948
  O        -2.8098103709       10.1929559468        1.2249310737
  O         2.0019936091        8.7957243895        1.2237288505
  O         0.8095997651       13.6597926427        1.2237824805
  O        -2.0166601518       14.1811653940        4.6839759472
  O        -6.6281291771       15.6740429235        4.7017570157
  O        -5.5503678429       10.9043717769        4.7049738841
  O        -1.8981504101       14.3510336068        7.1724276138
  O        -6.6938832772       15.6445228904        7.2095026017
  O        -5.4956420752       10.8730623109        7.2159800778
  O        -2.7361780637       10.2397087371        3.7328620163
  O         1.9624131175        8.8264498465        3.7323566598
  O         0.8089033122       13.5939960656        3.7334891524
  O        -4.0801396721       12.0244339326        2.4432028854
  O        -1.4794667303       12.0197061676        2.4563788316
  P        -2.7462949340       11.1249322204        2.4352101168
 Ca        -7.0617619409       16.3365901743        2.4404536854
  O         1.0510581894        6.7783483486        2.4468919241
  O        -0.2334011895        9.0310844399        2.4656163849
  P         1.1727766745        8.3796079116        2.4386348537
 Ca        -5.9076612923       10.2034153002        2.4352097047
  O         3.0300743148       13.8452460728        2.4500428699
  O         1.7239609698       11.6001879190        2.4632869630
  P         1.5830257372       13.1438204896        2.4372453273
 Ca        -1.1637413574       14.2724507021        2.4675046027
  O        -0.6318320516       12.4705462530        6.0194069389
  O        -3.2293788486       12.4290666651        6.0024797428
  P        -1.9845948596       13.3464372616        6.0059356101
 Ca         2.2835436786        8.1187139083        5.9332799711
  O        -5.7692699306       17.6990812529        6.0163185472
  O        -4.4655973436       15.4573513881        5.9814372663
  P        -5.8730520268       16.0995791695        6.0116395362
 Ca         1.1584721952       14.2444593162        5.9212264182
  O        11.1174010332       10.6338885816        6.0179222208
  O        -6.4609390604       12.8993223552        5.9840740599
  P        -6.3059607748       11.3609964444        6.0051224163
 Ca        -3.5519540962       10.2115116038        5.9494086738
 Ca        -4.7103640530       13.6004403286        0.9695377373
 Ca        -0.0086441882       10.8863070644        4.0151683330
 Ca        -0.0082654874       10.8866537037        7.5457982418
 Ca        -4.6969409331       13.6002348899        4.4402908729
  O        14.1648234211        8.1493965295        9.8306477773
  H        14.0295424839        8.2055184701        8.8427527414
  O        14.6194122926        8.1105643259        5.1807661455
  H        13.8834627088        8.2005280556        4.5397747537
  O        13.8343116260        8.3420166583        6.7312471204
  H        14.2561745544        8.0872157505        7.6347095098
  O        14.1245673087        8.1629869802        2.1921994535
  H        14.1931742865        8.1461122972        3.1644801255
  O         6.6146053907       10.1944261823        1.2251512700
  O        11.4266134634        8.7961209373        1.2230470459
  O        10.2336559907       13.6592472472        1.2251298739
  O         7.3792265574       14.1602266444        4.6737792109
  O         2.7634767081       15.6792979504        4.7119973341
  O         3.8746387115       10.9098837565        4.7061729396
  O         7.5360522314       14.3629104746        7.1590446332
  O         2.7464267022       15.6347533531        7.2238798903
  O         3.9299174896       10.8765037910        7.2186749593
  O         6.6874225464       10.2408992367        3.7328289801
  O        11.3880807947        8.8260029608        3.7311676414
  O        10.2391128424       13.5647191258        3.7355071700
  O         5.3434235191       12.0251812766        2.4454329579
  O         7.9437764183       12.0226769428        2.4570619878
  P         6.6769368471       11.1238559004        2.4361924143
 Ca         2.3680412896       16.3485240688        2.4175396886
  O        10.4755570969        6.7784113843        2.4468821124
  O         9.1925333511        9.0316350018        2.4663787827
  P        10.5961594160        8.3792777660        2.4375261416
 Ca         3.5131338255       10.2025618726        2.4339045029
  O        -6.3939430162       13.8429766745        2.4434888631
  O        11.1506040566       11.5939006384        2.4574539669
  P        11.0088376736       13.1382502522        2.4336446597
 Ca         8.2700733027       14.2709198692        2.4620374206
  O         8.7904233293       12.4700775978        6.0175170962
  O         6.1904406201       12.4369142709        6.0017991262
  P         7.4439771881       13.3378166342        6.0141579777
 Ca        11.6690917619        8.1240039270        5.9249288209
  O         3.6481741862       17.6976570651        6.0175003589
  O         4.9596192675       15.4613473539        5.9894381660
  P         3.5528815700       16.1115766466        5.9966647811
 Ca        10.6429415149       14.2850809178        5.9585039657
  O         1.6964957892       10.6357268327        6.0175258461
  O         2.9658096733       12.9022438909        5.9883294111
  P         3.1159237296       11.3616916776        6.0007579362
 Ca         5.8688233816       10.1825247166        5.9440731065
 Ca         4.7142148676       13.6011728515        0.9682880275
 Ca         9.4178479426       10.8866899081        4.0137902726
 Ca         9.4218614689       10.8826223340        7.5462937389
 Ca         4.7214044974       13.5870874455        4.4292998428
  O         4.7341439028        8.1496499904        9.8376853373
  H         4.6230762468        8.2104994928        8.8513590273
  O         5.1931271485        8.0852521128        5.1499156184
  H         4.4461668125        8.2160422366        4.5049713811
  O         4.4003028752        8.4304504819        6.7789468721
  H         4.8186274999        8.0650480161        7.6377630210
  O         4.7012225925        8.1633612503        2.1888159380
  H         4.7645248854        8.1437298786        3.1593683194
  O        -7.5204134471       18.3530554554        1.2247120716
  O        -2.7102284055       16.9535382470        1.2244031111
  O        -3.9040982831       21.8205389483        1.2243018384
  O        -6.7263810053       22.3436111100        4.6832183260
  O       -11.3056533817       23.8226781730        4.6930658220
  O       -10.2529808602       19.0603805322        4.7027846414
  O        -6.6113054276       22.5083991667        7.1802867221
  O       -11.4615439360       23.8175203700        7.1819339988
  O       -10.2048631797       19.0303095015        7.2136954837
  O        -7.4743145090       18.3696364882        3.7300231924
  O        -2.8064389026       16.9962204768        3.7385992628
  O        -3.9053720666       21.7564194650        3.7324171291
  O        -8.7927629850       20.1831041310        2.4468292537
  O        -6.1975999555       20.1668487134        2.4655108009
  P        -7.4651855984       19.2791548973        2.4335464850
 Ca       -11.7759846398       24.4982689757        2.4547821715
  O        -3.6647473567       14.9387214293        2.4396264753
  O        -4.9584256461       17.1942339200        2.4568182692
  P        -3.5487632779       16.5419613871        2.4322046744
 Ca       -10.6269105913       18.3522148252        2.4440142799
  O        -1.6823696213       22.0078443167        2.4459951027
  O        -2.9891268100       19.7610202334        2.4609097242
  P        -3.1303896674       21.3048238197        2.4365057661
 Ca        -5.8732436127       22.4345594344        2.4684062777
  O        -5.3503275368       20.6290797489        6.0167531395
  O        -7.9434633347       20.6156686672        6.0029504549
  P        -6.6863721652       21.5203057672        6.0050383887
 Ca        -2.5259895123       16.3096632761        6.0050675735
  O       -10.4826279936       25.8618018043        6.0166349459
  O        -9.1673823448       23.6244621927        5.9948961354
  P       -10.5809181165       24.2576549236        6.0073928269
 Ca        -3.5534211795       22.4227255378        5.9258634351
  O         6.4032005345       18.7954597613        6.0128517485
  O       -11.1642349581       21.0515689624        5.9775810127
  P       -11.0079156665       19.5144950850        6.0125518090
 Ca        -8.1925734981       18.4998257733        5.9191471560
 Ca        -9.4226253333       21.7652710600        0.9692344372
 Ca        -4.7028826606       19.0503105099        4.0195697743
 Ca        -4.7080740315       19.0506573582        7.5456891299
 Ca        -9.4129589680       21.7758634992        4.4441867987
  O        -9.4466571386       16.2957035866        9.8314318837
  H        -9.3487971310       16.4155422687        8.8427313019
  O        -9.6765641866       15.8870728419        5.1985701777
  H        -9.2932889156       16.5032019523        4.5603931093
  O        -9.2190885387       16.5430862278        6.6890095067
  H        -9.5079111750       16.2205678213        7.6302558276
  O        -9.4175796426       16.3316197496        2.1957937046
  H        -9.4600352637       16.2750830704        3.1662222118
  O         1.9046664674       18.3528034088        1.2233596986
  O         6.7120928861       16.9555281160        1.2251215942
  O         5.5211850722       21.8211545128        1.2245995180
  O         2.6786298010       22.3333834453        4.6779766310
  O        -1.9372045668       23.8423136040        4.7113375772
  O        -0.8361512703       19.1308950016        4.6865384047
  O         2.8247849677       22.5099656696        7.1668075193
  O        -1.9690348003       23.7987722280        7.2246088807
  O        -0.7736722641       18.9556955064        7.1744856684
  O         1.9574426712       18.3723903588        3.7304789378
  O         6.6361278098       16.9962813905        3.7376639735
  O         5.5309903497       21.7178685788        3.7356283491
  O         0.6351420951       20.1846952537        2.4441129855
  O         3.2282913975       20.1716397432        2.4635311840
  P         1.9611669789       19.2784555622        2.4392270706
 Ca        -2.3435523395       24.5092920535        2.4229981631
  O         5.7603477839       14.9415053845        2.4460293898
  O         4.4666772813       17.1908607209        2.4603694319
  P         5.8745381217       16.5431650156        2.4358847485
 Ca        -1.1994990081       18.3553006149        2.4709829121
  O       -11.1054527087       22.0038124964        2.4407995409
  O         6.4372796255       19.7555131080        2.4567690821
  P         6.2974169068       21.3018921446        2.4311643471
 Ca         3.5527704063       22.4323504509        2.4732387036
  O         4.0775197625       20.6272865619        6.0155699073
  O         1.4828370638       20.5991877691        6.0032135981
  P         2.7345665243       21.5047377779        6.0097740099
 Ca         7.0162340666       16.3496388757        5.9637041670
  O        -1.0641486201       25.8581781230        6.0180765057
  O         0.2542507264       23.6288396404        5.9937951389
  P        -1.1479726614       24.2752166502        5.9904771610
 Ca         5.9745717656       22.3723322572        5.9764313601
  O        -3.0224192724       18.7983268719        6.0133180234
  O        -1.7573946196       21.0684879978        5.9994627373
  P        -1.5889099846       19.5279003486        6.0044108932
 Ca         1.1341688120       18.4181966995        5.9171307054
 Ca        -0.0004468930       21.7625922586        0.9705274162
 Ca         4.7118162444       19.0496038160        4.0115699060
 Ca         4.7132374965       19.0584453380        7.5484009378
 Ca         0.0043690821       21.7386531150        4.4413899575
  O        -0.0331400354       16.3240733853        9.8300840380
  H         0.1171144705       16.3165057155        8.8485119706
  O        -0.3571350231       16.3305678906        5.2022890695
  H         0.3220471452       16.3365456394        4.4893248379
  O         0.4808655201       16.3147841764        6.7557862653
  H        -0.1036614765       16.3415221552        7.6083860095
  O         0.0110539688       16.3231839905        2.1932084125
  H        -0.0638598041       16.3219728091        3.1633359301
  O       -12.2325433810       26.5144654321        1.2248337283
  O        -7.4230303475       25.1141783551        1.2238044622
  O        -8.6138315906       29.9786556657        1.2244651052
  O       -11.4092908332       30.5295777819        4.6982216671
  O       -16.0060413660       31.9786081334        4.6934062578
  O       -14.9606733237       27.2040474576        4.7112345979
  O       -11.3765856539       30.6188327973        7.2072763390
  O       -16.1703558710       31.9790306204        7.1816399769
  O       -14.9106231332       27.2067832573        7.2223593595
  O       -12.1863792289       26.5372786533        3.7319253219
  O        -7.5173916387       25.1578232883        3.7354103436
  O        -8.6169467763       29.8992224291        3.7289049202
  O       -13.5060587478       28.3447089871        2.4487308470
  O       -10.9099219996       28.3322030927        2.4651727311
  P       -12.1771427322       27.4420499112        2.4353036809
 Ca       -16.4889954372       32.6622219251        2.4593286571
  O        -8.3766830964       23.1002448556        2.4393821707
  O        -9.6692080199       25.3550646949        2.4559839350
  P        -8.2625027143       24.7022732004        2.4323351590
 Ca       -15.3420358236       26.5160496730        2.4264957666
  O        -6.3935464635       30.1667707071        2.4428705461
  O        -7.6973196970       27.9172592821        2.4570312616
  P        -7.8429885444       29.4634181273        2.4367970057
 Ca       -10.5753877560       30.5941331691        2.4543128410
  O       -10.0672029147       28.7899094354        6.0131034864
  O       -12.6593186212       28.7663311969        5.9898004464
  P       -11.4005642939       29.6628255320        5.9997464025
 Ca        -7.1974660904       24.4659402392        5.9851537089
  O         3.6518433284        1.3773805467        6.0161843299
  O       -13.8565813847       31.7931083938        5.9959886729
  P       -15.2735144553       32.4186651168        6.0068569950
 Ca        -8.3124184140       30.7246744893        5.9365855124
  O         1.6977080712       26.9544235074        6.0167122848
  O       -15.8716211822       29.2085758025        5.9876306225
  P       -15.7290432881       27.6687431462        5.9965084595
 Ca       -12.8910095445       26.5964684239        5.9231459152
 Ca       -14.1342030432       29.9280212283        0.9671965032
 Ca        -9.4137667450       27.2127359817        4.0202991508
 Ca        -9.4163612615       27.2105714600        7.5451670690
 Ca       -14.1257009659       29.9503665680        4.4392772941
  O         4.7120103697       24.4534539825        9.8335569561
  H         4.7103984956       24.5968305281        8.8536145118
  O         4.5702707268       24.0243618556        5.1601078272
  H         4.7605051145       24.7464194953        4.5240016403
  O         4.6119387996       24.9042468515        6.7691372976
  H         4.7415954656       24.3619082515        7.6252498166
  O         4.7133842477       24.4953535363        2.1916752804
  H         4.7089819174       24.4233905632        3.1629598396
  O        -2.8064777152       26.5138506284        1.2230469609
  O         2.0003510016       25.1197773569        1.2240996804
  O         0.8094888129       29.9816799656        1.2235471749
  O        -2.0236374696       30.5014709024        4.6817108452
  O        -6.5697460515       31.9824368451        4.6914333074
  O        -5.5495525201       27.2904456506        4.6871564811
  O        -1.8965483279       30.6545506334        7.1760231216
  O        -6.7073107968       31.9832269706        7.1974652601
  O        -5.4882432575       27.1225761597        7.1766429490
  O        -2.7511728781       26.5372317770        3.7305700781
  O         1.9412188155       25.1571939579        3.7329613067
  O         0.8204828322       29.8773056311        3.7342893290
  O        -4.0762780601       28.3459974738        2.4426652727
  O        -1.4827507939       28.3344208048        2.4620013323
  P        -2.7506432351       27.4405943018        2.4402191860
 Ca        -7.0849311647       32.6669613248        2.4699246890
  O         1.0493523531       23.1043733689        2.4439029761
  O        -0.2402649311       25.3537001227        2.4627048860
  P         1.1684999638       24.7040716819        2.4399322833
 Ca        -5.9103914849       26.5162374383        2.4712286335
  O       -15.8183749528       30.1636427728        2.4432253184
  O         1.7257348105       27.9178735473        2.4583748541
  P         1.5874247515       29.4632815883        2.4325990505
 Ca        -1.1587255732       30.5959413595        2.4767498663
  O        -0.6328793532       28.7901513517        6.0178550703
  O        -3.2307103006       28.7527286241        6.0001652031
  P        -1.9826531935       29.6658554657        6.0102451442
 Ca         2.3941931304       24.4495292075        5.9269319433
  O        13.0836237030        1.3796377285        6.0117278256
  O        -4.4401801292       31.7911863324        5.9944525913
  P        -5.8502019496       32.4263547255        6.0135289223
 Ca         1.2247414530       30.5718402072        5.9634214678
  O        -7.7328210135       26.9562839715        6.0141947354
  O        -6.4673743041       29.2327148337        5.9976743419
  P        -6.3044242296       27.6967866063        6.0036463724
 Ca        -3.5852211666       26.5485855266        5.9187802641
 Ca        -4.7154708868       29.9244081314        0.9725026189
 Ca        -0.0070151835       27.2092756783        4.0094618433
 Ca        -0.0078605450       27.2155724142        7.5490613335
 Ca        -4.7121149358       29.9096506247        4.4464451262
  O        -4.7340751845       24.4841524398        9.8409100973
  H        -4.6216100455       24.4839055217        8.8584204996
  O        -5.1200193789       24.5145008454        5.1535249084
  H        -4.3929156439       24.4653266240        4.4618977412
  O        -4.1901145126       24.4679010612        6.8157168627
  H        -4.8285234520       24.4922427788        7.6247341101
  O        -4.7014030316       24.4839186008        2.1873284629
  H        -4.7667243182       24.4890373609        3.1566142989
  O         0.4111056998       15.1983177960       16.0638040226
  C         0.1010189549       16.2922873393       16.0597101004
  O        -0.2248509375       17.4574860470       16.0699293210
     387
 i =       17, E =     -6919.5722566721
  O         1.8933852588        2.0332522226        1.2206912024
  O         6.7128426714        0.6242344596        1.2218000157
  O         5.5262201883        5.5036595782        1.2219440545
  O         2.7308087044        6.0552603675        4.7015018199
  O        -1.8068473621        7.4700992121        4.6689344038
  O        -0.8358113348        2.7309565100        4.7127688130
  O         2.7893787092        6.1492727137        7.1967535393
  O        -2.0842068975        7.5154924599        7.1529237862
  O        -0.7807608771        2.7346617742        7.2306177375
  O         1.9504625890        2.0563074645        3.7238511731
  O         6.6487818868        0.6671734784        3.7272265738
  O         5.5297453841        5.4055603958        3.7272322967
  O         0.6240842969        3.8593140568        2.4484929312
  O         3.2150968638        3.8550409503        2.4657640766
  P         1.9530745356        2.9559806946        2.4303209440
 Ca        -2.3597911092        8.1891108850        2.4545408615
  O       -13.0811581293       31.2586765349        2.4453965171
  O         4.4688906362        0.8569241685        2.4595069364
  P         5.8791854723        0.2157999283        2.4305985964
 Ca        -1.2042484400        2.0319041313        2.4164851686
  O         7.7420002462        5.6868254248        2.4420325435
  O         6.4523452481        3.4367160351        2.4584977332
  P         6.3006273659        4.9812629589        2.4290651405
 Ca         3.5540254618        6.1045911086        2.4419115977
  O         4.0849643572        4.3073711804        6.0108481404
  O         1.4908479132        4.2699196334        5.9800664717
  P         2.7414072857        5.1890171634        6.0154820683
 Ca         7.1842081223       -0.0117372683        5.9521853573
  O        -1.0583858867        9.5421961777        6.0168723707
  O         0.2478623585        7.3075434148        6.0070701215
  P        -1.1634706593        7.9445246219        6.0150655905
 Ca         5.9112304589        6.0251188134        5.9705845737
  O        15.8317491406        2.4691992204        6.0139054809
  O        -1.7391521940        4.7145872284        5.9876789501
  P        -1.6021814615        3.1773117856        5.9940482576
 Ca         1.2196278549        2.0572678330        5.9364915763
 Ca        -0.0008672988        5.4423296967        0.9852506781
 Ca         4.7133890631        2.7156962039        4.0163547488
 Ca         4.7092119013        2.7120082889        7.5338495299
 Ca         0.0145315857        5.4481197319        4.4389432922
  O         0.0056599900       -0.0244440565        9.8418882304
  H        -0.0209086858        0.1029716749        8.8797599822
  O        -0.0837721327       -0.4939904926        5.0439933331
  H         0.0168507353        0.3131310054        4.4832633447
  O        -0.1507391034        0.5205905715        6.8954444156
  H         0.0635053640       -0.1581649253        7.6471603717
  O         0.0003671935        0.0122438310        2.2067750762
  H         0.0042934458       -0.0658983129        3.1711303935
  O        11.3195226092        2.0381124508        1.2198327555
  O        16.1377203992        0.6275412428        1.2201697526
  O        14.9502430699        5.5045327933        1.2220561996
  O        12.1731989484        6.0668638975        4.7049141170
  O         7.6145308453        7.4729706417        4.6710903310
  O         8.5706214729        2.8035097123        4.6866249337
  O        12.1971423758        6.1393974111        7.2030923372
  O         7.3451414983        7.5163246568        7.1597854180
  O         8.6390598658        2.6615635221        7.1911014929
  O        11.4098871842        2.0912386862        3.7202613176
  O        16.0797438308        0.6698614869        3.7204974541
  O        14.9522695765        5.4090203323        3.7292659635
  O        10.0511639903        3.8612852126        2.4426836467
  O        12.6467755923        3.8678226919        2.4563378080
  P        11.3848679732        2.9669536949        2.4256926901
 Ca         7.0619773427        8.1878839621        2.4587070842
  O        -3.6563811400       31.2600508944        2.4405173285
  O        13.8936018061        0.8559822718        2.4612947555
  P        15.3070410533        0.2160575208        2.4346033419
 Ca         8.2388042170        2.0188905228        2.4573960531
  O        -1.6820704819        5.6846335225        2.4444927941
  O        15.8741591634        3.4398013453        2.4608980228
  P        15.7228778469        4.9830671130        2.4280777326
 Ca        12.9786919511        6.1056034410        2.4376219644
  O        13.5159935356        4.3120508711        6.0141339812
  O        10.9156970956        4.2660693878        5.9768331219
  P        12.1605568679        5.1847369310        6.0137909508
 Ca        16.5609978729       -0.0433716090        5.9256581297
  O         8.3671834141        9.5416133234        6.0174147832
  O         9.6639711990        7.3038965684        6.0056025722
  P         8.2554859682        7.9445980766        6.0171645519
 Ca        15.3314412659        6.0239308823        5.9679685758
  O         6.3960990769        2.4740411468        6.0109154110
  O         7.6766038293        4.7288787928        6.0001185605
  P         7.8304435734        3.1915758452        6.0103370631
 Ca        10.5647491858        1.9565733956        5.9445986914
 Ca         9.4225360441        5.4390650574        0.9880194434
 Ca        14.1280561825        2.7169046412        4.0102370908
 Ca        14.1184463981        2.7141677720        7.5354848175
 Ca         9.4289106386        5.4304504778        4.4454722978
  O         9.4248185246        0.0159619403        9.9309905265
  H         9.4207769750       -0.0688915068        8.9416200236
  O         9.7367035994        0.1194405665        4.9130140811
  H         9.1783085753       -0.0884901284        4.1540084536
  O         9.3538069720       -0.2687226996        6.9912331614
  H         9.3444359632        0.2205181211        7.9961806343
  O         9.4110919321       -0.0033204403        2.1371710991
  H         9.4653092798        0.0303785436        3.0988282416
  O        -2.8197961915       10.1941516762        1.2222381522
  O         2.0060243133        8.7871389989        1.2202580762
  O         0.8160014885       13.6679927638        1.2216116898
  O        -2.0290737281       14.1694296167        4.6784436876
  O        -6.6296349464       15.6797185046        4.7025091315
  O        -5.5561723310       10.9011379310        4.7091886152
  O        -1.8913016153       14.3553772500        7.1633265404
  O        -6.6889294678       15.6435356364        7.2158693301
  O        -5.4995172562       10.8821560718        7.2213588640
  O        -2.7368441260       10.2429960251        3.7254009749
  O         1.9655122540        8.8225193556        3.7228037681
  O         0.8099805743       13.5972210330        3.7242501526
  O        -4.0863951833       12.0227093656        2.4434575695
  O        -1.4901249842       12.0278055451        2.4578194264
  P        -2.7509781451       11.1243194682        2.4273660830
 Ca        -7.0634882834       16.3343087893        2.4281772337
  O         1.0565949317        6.7736314742        2.4479703938
  O        -0.2295716221        9.0180988242        2.4689276430
  P         1.1796627834        8.3759572695        2.4314448461
 Ca        -5.9038511265       10.2019140766        2.4223840609
  O         3.0323237480       13.8519418490        2.4503295129
  O         1.7349596920       11.6080769536        2.4663494391
  P         1.5846970883       13.1512493387        2.4285414548
 Ca        -1.1644579118       14.2765592443        2.4602741606
  O        -0.6242201751       12.4710670843        6.0212549265
  O        -3.2156074587       12.4276059019        6.0050010145
  P        -1.9747414126       13.3548631183        6.0107303642
 Ca         2.2613884049        8.1161757448        5.9363785838
  O        -5.7712609988       17.7077887841        6.0169991842
  O        -4.4846030099       15.4597740144        5.9774079847
  P        -5.8881795154       16.1053076989        6.0176067908
 Ca         1.1555853724       14.2241540479        5.9211887553
  O        11.1122241971       10.6245718517        6.0190415588
  O        -6.4661184212       12.8878397536        5.9792521166
  P        -6.3089154119       11.3506345775        6.0092655372
 Ca        -3.5443452057       10.2281818425        5.9568135707
 Ca        -4.7097971003       13.6005858058        0.9885568972
 Ca        -0.0118336934       10.8874519622        4.0087810130
 Ca        -0.0105027765       10.8882621816        7.5348895847
 Ca        -4.6927602965       13.5986841663        4.4422833835
  O        14.1725388638        8.1455551478        9.8049943722
  H        13.9996591806        8.2187578846        8.8419297209
  O        14.6542890043        8.1005324986        5.1836227251
  H        13.8671495100        8.1998402281        4.5930594658
  O        13.7976057278        8.3945365886        6.7320529466
  H        14.2921504376        8.0635903835        7.6122822297
  O        14.1260643164        8.1621398547        2.2261196960
  H        14.2028614072        8.1438036417        3.1871451948
  O         6.6046416589       10.1955122944        1.2223145293
  O        11.4309115082        8.7872348879        1.2193431696
  O        10.2396577838       13.6678774803        1.2223092966
  O         7.3633967859       14.1410170008        4.6649397955
  O         2.7561839323       15.6860042598        4.7187204975
  O         3.8695359188       10.9083232400        4.7106323395
  O         7.5469241414       14.3699984757        7.1461401716
  O         2.7526286509       15.6320403087        7.2328167897
  O         3.9244192248       10.8884704191        7.2249695903
  O         6.6871391644       10.2446002765        3.7252729186
  O        11.3905920638        8.8218793206        3.7208374104
  O        10.2431993646       13.5625440808        3.7297635228
  O         5.3363126631       12.0236487222        2.4457566680
  O         7.9323651586       12.0305561349        2.4579186561
  P         6.6730931261       11.1243990530        2.4286169063
 Ca         2.3644309266       16.3473649806        2.4003700414
  O        10.4811493122        6.7735597123        2.4473447934
  O         9.1958213568        9.0186197104        2.4695983554
  P        10.6036889149        8.3753716900        2.4296084324
 Ca         3.5170949954       10.2002621076        2.4199278358
  O        -6.3915028943       13.8487875617        2.4433390395
  O        11.1635926810       11.5987244600        2.4585025921
  P        11.0110546884       13.1416405947        2.4266532963
 Ca         8.2705255864       14.2717876706        2.4534417925
  O         8.7971648381       12.4709757973        6.0197389114
  O         6.2010554679       12.4318359880        6.0065949430
  P         7.4514804720       13.3444087100        6.0160892852
 Ca        11.6484995365        8.1249132840        5.9280261225
  O         3.6407619153       17.7060518485        6.0181634312
  O         4.9497280627       15.4728171174        5.9828240612
  P         3.5440979327       16.1175733817        5.9995594598
 Ca        10.6586432667       14.2644660728        5.9679262299
  O         1.6919968582       10.6272327103        6.0185763131
  O         2.9590405297       12.8924602680        5.9840269510
  P         3.1125178320       11.3526479893        6.0043350458
 Ca         5.8773773888       10.1938736667        5.9495561461
 Ca         4.7151873424       13.6012193325        0.9864191053
 Ca         9.4160865528       10.8900369598        4.0076378719
 Ca         9.4213232211       10.8848302525        7.5349314848
 Ca         4.7272307486       13.5839282648        4.4308406807
  O         4.7397950152        8.1454821862        9.8162144086
  H         4.5962235232        8.2273221651        8.8543988212
  O         5.2242894563        8.0791517767        5.1456846043
  H         4.4280467606        8.2156384792        4.5554787575
  O         4.3713729865        8.4948657202        6.7991642882
  H         4.8406692629        8.0392702888        7.6091876353
  O         4.7013360478        8.1625354775        2.2197998380
  H         4.7751710100        8.1405764307        3.1817401298
  O        -7.5308744060       18.3522638505        1.2192420289
  O        -2.7050365070       16.9445164352        1.2222758431
  O        -3.8984630934       21.8284530995        1.2213106756
  O        -6.7386784063       22.3327855443        4.6768189890
  O       -11.2993238493       23.8200242023        4.6888622613
  O       -10.2557049447       19.0547732688        4.7065810947
  O        -6.6025695179       22.5146179924        7.1745659886
  O       -11.4701296165       23.8198314933        7.1806998605
  O       -10.2059177192       19.0337072042        7.2172689249
  O        -7.4788331992       18.3694012440        3.7192681736
  O        -2.8132171009       16.9943376896        3.7353323467
  O        -3.9041740357       21.7600107719        3.7228383772
  O        -8.7997123200       20.1804578166        2.4475527767
  O        -6.2100600359       20.1705009974        2.4690755744
  P        -7.4718705749       19.2755984714        2.4262783891
 Ca       -11.7794898366       24.4952911749        2.4444812958
  O        -3.6611703928       14.9346379566        2.4388049255
  O        -4.9619469723       17.1808328231        2.4574855218
  P        -3.5486847429       16.5387124316        2.4253135567
 Ca       -10.6254576306       18.3502410968        2.4324857308
  O        -1.6805887987       22.0152220800        2.4470491926
  O        -2.9778479300       19.7692648881        2.4638378056
  P        -3.1287383578       21.3119099026        2.4281564956
 Ca        -5.8724691431       22.4386904786        2.4613611973
  O        -5.3455895096       20.6283232559        6.0171432483
  O        -7.9316164868       20.6285605387        6.0060161636
  P        -6.6742134055       21.5317864220        6.0108235172
 Ca        -2.5430991200       16.3179310761        6.0103461740
  O       -10.4855979678       25.8684390510        6.0182329112
  O        -9.1869124924       23.6295564305        5.9950769383
  P       -10.5973258690       24.2635159975        6.0116841012
 Ca        -3.5578919725       22.4020100477        5.9244109560
  O         6.3986954965       18.7884874998        6.0122079964
  O       -11.1630342270       21.0368144397        5.9724825973
  P       -11.0052834908       19.4998510258        6.0188871940
 Ca        -8.1801393049       18.5138415620        5.9228939090
 Ca        -9.4221849758       21.7649791527        0.9878946675
 Ca        -4.7000195733       19.0498019050        4.0126666426
 Ca        -4.7068667970       19.0531545404        7.5354878096
 Ca        -9.4107078533       21.7787731318        4.4450881590
  O        -9.4530127431       16.2879201806        9.8052588435
  H        -9.3287560410       16.4403088251        8.8382992032
  O        -9.6978720498       15.8553668091        5.2194093229
  H        -9.2840214423       16.5176324493        4.6065198484
  O        -9.1807116347       16.5811467920        6.6701087135
  H        -9.5406607718       16.1802850466        7.6208137049
  O        -9.4189093535       16.3301843546        2.2303755762
  H        -9.4653784742       16.2681468486        3.1897475793
  O         1.8954463200       18.3538937055        1.2193112608
  O         6.7157918180       16.9465865125        1.2232026787
  O         5.5263162136       21.8299249550        1.2217974668
  O         2.6599753937       22.3124146592        4.6708995635
  O        -1.9437702132       23.8509007788        4.7181963121
  O        -0.8390256687       19.1459502105        4.6821271628
  O         2.8360926738       22.5129199192        7.1574414257
  O        -1.9561237463       23.7952947520        7.2332726974
  O        -0.7768884877       18.9471867213        7.1683652351
  O         1.9527067403       18.3717491931        3.7194750833
  O         6.6347163319       16.9930849422        3.7316295588
  O         5.5360988182       21.7122277574        3.7306942087
  O         0.6297463241       20.1825545981        2.4448130952
  O         3.2158233397       20.1758701792        2.4664547333
  P         1.9551923675       19.2748756163        2.4310092459
 Ca        -2.3477856980       24.5082393743        2.4055042629
  O         5.7636575517       14.9378661601        2.4454848835
  O         4.4653329200       17.1779276704        2.4621891950
  P         5.8780956976       16.5386794130        2.4288440277
 Ca        -1.1985389994       18.3522583327        2.4646443618
  O       -11.1031170258       22.0096570957        2.4403843910
  O         6.4507985924       19.7599926635        2.4569269646
  P         6.3004688941       21.3038058280        2.4239268763
 Ca         3.5544009027       22.4346308730        2.4675184442
  O         4.0849339536       20.6259870876        6.0154439432
  O         1.4950973539       20.6005347788        6.0067390582
  P         2.7460430319       21.5105143358        6.0133349547
 Ca         6.9925819068       16.3573106345        5.9681160795
  O        -1.0723198423       25.8666627657        6.0191395965
  O         0.2459399711       23.6407016476        5.9892402697
  P        -1.1546280908       24.2837363276        5.9925066077
 Ca         5.9818463041       22.3542260448        5.9798561475
  O        -3.0288890832       18.7932489012        6.0121076661
  O        -1.7666741007       21.0575760353        5.9996352353
  P        -1.5907072646       19.5157296650        6.0092045284
 Ca         1.1358205017       18.4344951909        5.9139330154
 Ca        -0.0001302660       21.7618610221        0.9896804425
 Ca         4.7123572994       19.0512825759        4.0048114930
 Ca         4.7121378189       19.0608638300        7.5378774508
 Ca         0.0060147173       21.7315884899        4.4442268058
  O        -0.0431796697       16.3243135349        9.8062621829
  H         0.1488545070       16.3148686236        8.8505744330
  O        -0.3745566982       16.3312618438        5.2138825323
  H         0.3563355160       16.3394639128        4.5398703219
  O         0.5567367585       16.3124802171        6.7647180529
  H        -0.1245298728       16.3457897072        7.5712185299
  O         0.0102357843       16.3233160014        2.2263191665
  H        -0.0778002310       16.3217262685        3.1865251564
  O       -12.2426426533       26.5146407102        1.2207903694
  O        -7.4185047082       25.1047031111        1.2214100766
  O        -8.6086821485       29.9863253099        1.2200133808
  O       -11.4131243294       30.5265830317        4.6972668783
  O       -15.9950991757       31.9749313625        4.6915085161
  O       -14.9623701944       27.1950044941        4.7188471747
  O       -11.3833894968       30.6068697550        7.2134863958
  O       -16.1760878864       31.9812272186        7.1771645997
  O       -14.9106992595       27.2141562622        7.2305729484
  O       -12.1906356187       26.5360788392        3.7223268367
  O        -7.5266376529       25.1557214647        3.7304536155
  O        -8.6166345743       29.9004648169        3.7196147962
  O       -13.5139574717       28.3425062930        2.4496547679
  O       -10.9231549634       28.3366762993        2.4686798058
  P       -12.1841767405       27.4390757946        2.4276964848
 Ca       -16.4944925827       32.6598425460        2.4500784017
  O        -8.3732064584       23.0956159254        2.4390634652
  O        -9.6727216373       25.3421010307        2.4567258724
  P        -8.2612233872       24.6994569664        2.4241076275
 Ca       -15.3389276222       26.5113905549        2.4113539074
  O        -6.3926556391       30.1727669840        2.4420276118
  O        -7.6847258484       27.9231037084        2.4585602982
  P        -7.8387934117       29.4668371821        2.4294628418
 Ca       -10.5725111630       30.5931178966        2.4418420713
  O       -10.0637826374       28.7879634366        6.0119176148
  O       -12.6514570101       28.7704523557        5.9872277517
  P       -11.3922021146       29.6654724494        6.0024271781
 Ca        -7.2168176761       24.4744618539        5.9899572987
  O         3.6467780131        1.3835356513        6.0172282601
  O       -13.8561513126       31.8085275117        5.9964895358
  P       -15.2801724539       32.4234895236        6.0120193456
 Ca        -8.3156877955       30.7324781988        5.9355369051
  O         1.6957757669       26.9443328287        6.0176623120
  O       -15.8730913315       29.1922685178        5.9823324144
  P       -15.7300851553       27.6561847696        5.9976137427
 Ca       -12.8702241742       26.6086588209        5.9256445560
 Ca       -14.1333658513       29.9282179578        0.9841329066
 Ca        -9.4083270504       27.2148876548        4.0140673765
 Ca        -9.4117950021       27.2140950247        7.5338741388
 Ca       -14.1230929027       29.9583074249        4.4412380813
  O         4.7134028382       24.4449547318        9.8136333639
  H         4.7080688295       24.6290858418        8.8557883346
  O         4.5528888992       23.9975519911        5.1597258758
  H         4.7718097829       24.7617943957        4.5758736437
  O         4.5829102335       24.9690665126        6.7772116493
  H         4.7523843178       24.3335263340        7.5992560569
  O         4.7135047614       24.4942072097        2.2245290178
  H         4.7080099080       24.4119776044        3.1855285838
  O        -2.8150109803       26.5151998763        1.2191431770
  O         2.0030842830       25.1116204715        1.2211495173
  O         0.8154103369       29.9893047455        1.2215339289
  O        -2.0416372157       30.4808641141        4.6766524338
  O        -6.5529664251       31.9819134816        4.6897815311
  O        -5.5522545300       27.3054141235        4.6835227315
  O        -1.8858648189       30.6565693976        7.1703351851
  O        -6.7017472132       31.9875998363        7.1995587536
  O        -5.4916536852       27.1133835957        7.1709548029
  O        -2.7551882152       26.5357496756        3.7194672943
  O         1.9433832090       25.1538663792        3.7236785510
  O         0.8270701080       29.8679101963        3.7282727640
  O        -4.0810458175       28.3436698675        2.4422034623
  O        -1.4950988575       28.3387234452        2.4646839406
  P        -2.7567284110       27.4377719468        2.4322235165
 Ca        -7.0903100687       32.6659010977        2.4667795831
  O         1.0532263524       23.1006733778        2.4438937561
  O        -0.2394655923       25.3407454728        2.4652545957
  P         1.1736291604       24.7005900460        2.4324007161
 Ca        -5.9082671001       26.5127682031        2.4667396905
  O       -15.8156134123       30.1692165271        2.4431686342
  O         1.7385980709       27.9220125310        2.4582417335
  P         1.5901374759       29.4662284436        2.4246553317
 Ca        -1.1568370948       30.6012822585        2.4740812739
  O        -0.6241348244       28.7881137855        6.0184139905
  O        -3.2170937009       28.7513520761        6.0020860552
  P        -1.9735297654       29.6689922972        6.0148077596
 Ca         2.3818051892       24.4486075465        5.9263253026
  O        13.0816735000        1.3910397891        6.0107739868
  O        -4.4361194407       31.8036636813        5.9920696765
  P        -5.8493343929       32.4266183039        6.0183813022
 Ca         1.2332820355       30.5545281145        5.9668365459
  O        -7.7393623727       26.9480535225        6.0137257467
  O        -6.4813715485       29.2254246034        5.9979062901
  P        -6.3071598308       27.6907892033        6.0070619892
 Ca        -3.5882844524       26.5632485972        5.9142739521
 Ca        -4.7165706289       29.9247294761        0.9946341238
 Ca        -0.0083861748       27.2106581187        4.0026357688
 Ca        -0.0101896819       27.2175193139        7.5379918358
 Ca        -4.7146670679       29.9070598297        4.4531975701
  O        -4.7408821413       24.4840666426        9.8230021083
  H        -4.5925738519       24.4834132686        8.8643047012
  O        -5.1270131326       24.5154013082        5.1547346285
  H        -4.3639364376       24.4644045135        4.5101346745
  O        -4.1242558578       24.4666551826        6.8404115797
  H        -4.8376153973       24.4952771370        7.5821531819
  O        -4.7011064029       24.4839235822        2.2165644376
  H        -4.7805467678       24.4904157954        3.1792531397
  O         0.4164959054       15.1918792429       16.0639244475
  C         0.0964118662       16.3107098159       16.0604433022
  O        -0.2220671470       17.4463896588       16.0692645966
     387
 i =       18, E =     -6919.6675136778
  O         1.8765123842        2.0349836392        1.2150084963
  O         6.7191347333        0.6091830134        1.2172239404
  O         5.5369227798        5.5151835106        1.2197465990
  O         2.7191298865        6.0483312778        4.7002230778
  O        -1.7742020546        7.4607252933        4.6517809873
  O        -0.8382717419        2.7176501367        4.7197517012
  O         2.8007303765        6.1459998807        7.2001825609
  O        -2.1070303277        7.5278750613        7.1382255760
  O        -0.7887869583        2.7606004917        7.2448135461
  O         1.9473748700        2.0563998047        3.7097116640
  O         6.6522250253        0.6603219643        3.7171758879
  O         5.5372044053        5.3956710364        3.7181160586
  O         0.6204293544        3.8637864153        2.4478781422
  O         3.1933346801        3.8634729964        2.4801589782
  P         1.9478203679        2.9548421227        2.4199992654
 Ca        -2.3620877363        8.1895593546        2.4481546569
  O       -13.0847229103       31.2538627811        2.4447354806
  O         4.4671085199        0.8344694503        2.4739132018
  P         5.8801908834        0.2145676544        2.4202891861
 Ca        -1.1986796311        2.0218379883        2.3988733668
  O         7.7484028509        5.6839076023        2.4385733115
  O         6.4760581916        3.4437637825        2.4687667999
  P         6.3049831338        4.9782052427        2.4171719229
 Ca         3.5565988982        6.1112310978        2.4338204459
  O         4.0875610245        4.2933248152        6.0142368216
  O         1.5137780023        4.2724794917        5.9687625534
  P         2.7542445955        5.1943672262        6.0197405053
 Ca         7.1942857652       -0.0096728364        5.9647291061
  O        -1.0495107366        9.5481382029        6.0244155457
  O         0.2281650088        7.3178611556        6.0085933574
  P        -1.1808359858        7.9479359828        6.0088286179
 Ca         5.9109312366        5.9928137516        5.9689117688
  O        15.8199876915        2.4685042908        6.0190900761
  O        -1.7395235570        4.6929114121        5.9718075218
  P        -1.6021877586        3.1575164325        5.9993902148
 Ca         1.2615084818        2.0853492923        5.9387056707
 Ca        -0.0009634064        5.4438145039        1.0252077772
 Ca         4.7157960998        2.7138643697        4.0150837435
 Ca         4.7088105876        2.7066687366        7.5026859321
 Ca         0.0194274840        5.4550031006        4.4335205564
  O         0.0116502777       -0.0410464227        9.7986740370
  H        -0.0355236500        0.1595742840        8.8576381487
  O        -0.1227897548       -0.4787501821        5.0260617748
  H         0.0289119567        0.3233946101        4.5485628229
  O        -0.1879504570        0.5624178227        6.9251422324
  H         0.0735151848       -0.1618562390        7.5939447745
  O         0.0024647436        0.0121715112        2.2752118661
  H         0.0043257954       -0.0903261258        3.2317093194
  O        11.3033237515        2.0402953679        1.2149021471
  O        16.1412146050        0.6125555364        1.2146417036
  O        14.9604601606        5.5173398836        1.2189463003
  O        12.1727809717        6.0617294546        4.7088964168
  O         7.6482842866        7.4639387297        4.6540911074
  O         8.5670128372        2.8161449387        4.6810860268
  O        12.1979511231        6.1311308477        7.2061714203
  O         7.3205584384        7.5297851663        7.1479240992
  O         8.6339946969        2.6420588988        7.1935635821
  O        11.4195968988        2.1065251835        3.7084974017
  O        16.0803069278        0.6684065046        3.7040288841
  O        14.9603105644        5.4025366278        3.7206332896
  O        10.0506059430        3.8670036167        2.4391758273
  O        12.6307505580        3.8849202443        2.4654408360
  P        11.3842714983        2.9740315654        2.4122321494
 Ca         7.0574059069        8.1887935469        2.4545143048
  O        -3.6598181322       31.2563660009        2.4351667484
  O        13.8898071032        0.8317134298        2.4725216438
  P        15.3062036724        0.2128805676        2.4231130442
 Ca         8.2428862180        2.0186329644        2.4501371561
  O        -1.6757053447        5.6805371728        2.4416469881
  O        15.8953070500        3.4495638973        2.4722076197
  P        15.7268168159        4.9823563634        2.4178646741
 Ca        12.9801003235        6.1146980810        2.4290356628
  O        13.5221891423        4.3030629128        6.0196073027
  O        10.9390409920        4.2540169076        5.9624070148
  P        12.1704934369        5.1854783845        6.0186473420
 Ca        16.5466990310       -0.0523378810        5.9200293482
  O         8.3768743314        9.5469185695        6.0253973183
  O         9.6401519684        7.3098132914        6.0068197306
  P         8.2372622554        7.9491420010        6.0122229457
 Ca        15.3336368078        5.9890433759        5.9683903192
  O         6.3796753715        2.4787013375        6.0139017566
  O         7.6733915524        4.7139131692        5.9904297375
  P         7.8325029368        3.1773344146        6.0124959234
 Ca        10.5773885990        1.9621120203        5.9471202322
 Ca         9.4215732798        5.4400168848        1.0306089271
 Ca        14.1231873053        2.7123277443        4.0087057557
 Ca        14.1091742098        2.7072134042        7.5033641095
 Ca         9.4279743797        5.4248064714        4.4438291520
  O         9.4206886162        0.0324942177        9.9273519162
  H         9.4303547502       -0.1419059755        8.9739831760
  O         9.7841808359        0.1207409332        4.8410028756
  H         9.1027637561       -0.1000075026        4.2155361222
  O         9.2965698806       -0.2878794039        7.0416216826
  H         9.3207955362        0.2992329887        7.9840786135
  O         9.4050934068       -0.0062304026        2.1553217367
  H         9.5043930103        0.0490146189        3.1095658266
  O        -2.8368423949       10.1972003057        1.2180559494
  O         2.0132722124        8.7712865952        1.2136665371
  O         0.8264504920       13.6827256815        1.2165920054
  O        -2.0532699782       14.1489445214        4.6665339000
  O        -6.6354898151       15.6881700377        4.7012810859
  O        -5.5637952015       10.8965506052        4.7141295556
  O        -1.8788540455       14.3623855438        7.1520891721
  O        -6.6842141846       15.6436686771        7.2294333644
  O        -5.5077778479       10.8954654949        7.2303336666
  O        -2.7335629484       10.2513026253        3.7149317402
  O         1.9645569549        8.8187046174        3.7092668496
  O         0.8115720323       13.5968610588        3.7097518199
  O        -4.0877074348       12.0281579442        2.4410270053
  O        -1.5085725371       12.0422576480        2.4679352167
  P        -2.7521172933       11.1276139983        2.4163502876
 Ca        -7.0676260462       16.3300399664        2.4174213055
  O         1.0548294984        6.7691566974        2.4457712110
  O        -0.2257389514        8.9960299159        2.4817682572
  P         1.1830811099        8.3725322593        2.4208158680
 Ca        -5.8959152044       10.1974884524        2.4114288023
  O         3.0390712070       13.8516762720        2.4472030485
  O         1.7553690415       11.6215459104        2.4791294095
  P         1.5887100163       13.1545947714        2.4171920328
 Ca        -1.1665153590       14.2839723161        2.4559293945
  O        -0.6206054436       12.4618556152        6.0302949258
  O        -3.1911123295       12.4291076596        6.0011783406
  P        -1.9640068948       13.3641542724        6.0087759452
 Ca         2.2259453312        8.1139832156        5.9435460222
  O        -5.7607171864       17.7198036811        6.0247590922
  O        -4.5151768522       15.4588379077        5.9615958865
  P        -5.9094790916       16.1137212480        6.0214538586
 Ca         1.1556105473       14.1875207251        5.9229336775
  O        11.0974884396       10.6223191905        6.0272236116
  O        -6.4722866135       12.8670085397        5.9621247993
  P        -6.3118240245       11.3341927181        6.0140815345
 Ca        -3.5289357498       10.2606215685        5.9691514132
 Ca        -4.7089268348       13.6010130251        1.0312054034
 Ca        -0.0175306709       10.8888426751        4.0046857371
 Ca        -0.0141777599       10.8903221650        7.5051448772
 Ca        -4.6854412688       13.5960205579        4.4390924279
  O        14.1929475933        8.1354542680        9.7316952577
  H        13.9434270644        8.2448876960        8.8022527227
  O        14.6615566851        8.0838332176        5.2071205031
  H        13.8631298350        8.1948813248        4.6573928555
  O        13.7859977637        8.4607629196        6.7434624768
  H        14.3296907984        8.0375321620        7.5615615761
  O        14.1297247172        8.1605893406        2.2991665875
  H        14.2174848183        8.1406432945        3.2586849026
  O         6.5874438122       10.1988208533        1.2187552346
  O        11.4387831124        8.7706786670        1.2121940878
  O        10.2510183624       13.6817345123        1.2194455234
  O         7.3414536514       14.1181443459        4.6496471614
  O         2.7452586945       15.6939131936        4.7282251808
  O         3.8635415819       10.9067155307        4.7159298434
  O         7.5661742144       14.3806142889        7.1290594295
  O         2.7644331312       15.6311310201        7.2468591979
  O         3.9135590365       10.9071548882        7.2363332418
  O         6.6913934536       10.2540765918        3.7145789923
  O        11.3888889307        8.8175926596        3.7063224324
  O        10.2499040952       13.5543154583        3.7227049873
  O         5.3334570078       12.0294412998        2.4433111347
  O         7.9128311823       12.0445533944        2.4668685370
  P         6.6722694670       11.1284224301        2.4168001773
 Ca         2.3556314687       16.3439219877        2.3825556250
  O        10.4797251449        6.7683738672        2.4440963894
  O         9.1987358308        8.9962187515        2.4820831909
  P        10.6070462705        8.3719345575        2.4177526735
 Ca         3.5254182290       10.1946836754        2.4067244320
  O        -6.3848514317       13.8461187653        2.4401299720
  O        11.1863904327       11.6065610616        2.4681480265
  P        11.0149688478       13.1408961496        2.4166434188
 Ca         8.2697468190       14.2726004201        2.4468263780
  O         8.7995261902       12.4620066222        6.0300384160
  O         6.2201435867       12.4257770930        6.0084340175
  P         7.4583638145       13.3517013768        6.0081574493
 Ca        11.6180276044        8.1279106600        5.9356620743
  O         3.6418187699       17.7168038443        6.0256207947
  O         4.9328896959       15.4908149232        5.9622581452
  P         3.5272385905       16.1258617519        6.0066169029
 Ca        10.6861784452       14.2242901197        5.9831942038
  O         1.6782195627       10.6260560612        6.0265319212
  O         2.9483801812       12.8762569277        5.9671971109
  P         3.1079478668       11.3399020820        6.0087176411
 Ca         5.8958691580       10.2202291045        5.9587700933
 Ca         4.7169076589       13.6013767134        1.0273628378
 Ca         9.4130948297       10.8959165265        4.0044573593
 Ca         9.4199915319       10.8889915535        7.5039849934
 Ca         4.7390035610       13.5785314677        4.4276191604
  O         4.7547071304        8.1341170138        9.7561780027
  H         4.5454319397        8.2612161839        8.8197898398
  O         5.2230845047        8.0774302941        5.1577195683
  H         4.4246154406        8.2091864337        4.6209423475
  O         4.3647698181        8.5750203664        6.8311685046
  H         4.8571026970        8.0136828652        7.5547005992
  O         4.7026704546        8.1610168354        2.2910984137
  H         4.7921812800        8.1359206322        3.2505996695
  O        -7.5496910393       18.3525595907        1.2107074071
  O        -2.6987500446       16.9287429796        1.2222994216
  O        -3.8881553395       21.8424420872        1.2155400262
  O        -6.7613916268       22.3154545138        4.6635164076
  O       -11.2938610413       23.8129106181        4.6775635085
  O       -10.2578601029       19.0448865999        4.7105780970
  O        -6.5843652645       22.5258909737        7.1686570385
  O       -11.4839578511       23.8261446632        7.1819972331
  O       -10.2069753874       19.0340594586        7.2262022844
  O        -7.4810782410       18.3728968191        3.7039617921
  O        -2.8277147029       16.9942010500        3.7325214097
  O        -3.9022140883       21.7598581752        3.7075300956
  O        -8.8026236694       20.1841367694        2.4446303148
  O        -6.2294461462       20.1797310576        2.4820638359
  P        -7.4763642543       19.2739828250        2.4145861576
 Ca       -11.7863330761       24.4893224879        2.4359995668
  O        -3.6672182382       14.9319168357        2.4346870784
  O        -4.9686620490       17.1580338558        2.4662765389
  P        -3.5543295665       16.5377335849        2.4151756509
 Ca       -10.6211772780       18.3471553711        2.4231075285
  O        -1.6749128152       22.0159052659        2.4454265816
  O        -2.9570190433       19.7832850952        2.4763258330
  P        -3.1250378242       21.3157503230        2.4165786917
 Ca        -5.8722797783       22.4453781630        2.4576386673
  O        -5.3459336642       20.6165835854        6.0232367652
  O        -7.9146768245       20.6517792476        6.0038972400
  P        -6.6613119806       21.5485732137        6.0112072768
 Ca        -2.5537399611       16.3326372238        6.0081623491
  O       -10.4770294006       25.8777495440        6.0274381858
  O        -9.2188302116       23.6359037759        5.9869492667
  P       -10.6231119421       24.2690258287        6.0132684080
 Ca        -3.5603615048       22.3640628508        5.9235625248
  O         6.3857784019       18.7901097517        6.0176846104
  O       -11.1586082196       21.0114742304        5.9550252437
  P       -11.0002586921       19.4815152128        6.0232460977
 Ca        -8.1611455364       18.5339944348        5.9315303407
 Ca        -9.4213735250       21.7639582832        1.0307212875
 Ca        -4.6958336441       19.0474676614        4.0071814379
 Ca        -4.7051177376       19.0570857435        7.5072079183
 Ca        -9.4072961100       21.7837214020        4.4398185412
  O        -9.4693181137       16.2667079763        9.7255169989
  H        -9.2909835940       16.4868690718        8.7942764498
  O        -9.7030151661       15.8564580398        5.2717605949
  H        -9.2869710306       16.5134244166        4.6666724670
  O        -9.1567908219       16.6039896442        6.6542487090
  H        -9.5789514456       16.1315284936        7.5860881764
  O        -9.4216873346       16.3270723808        2.3041664833
  H        -9.4730137004       16.2581612288        3.2629956488
  O         1.8784880284       18.3561371817        1.2112935978
  O         6.7219487318       16.9304995040        1.2204197490
  O         5.5368200516       21.8432647450        1.2200251377
  O         2.6317599537       22.2810644425        4.6566008625
  O        -1.9533815021       23.8619935702        4.7277053221
  O        -0.8437342584       19.1744424608        4.6725728307
  O         2.8582933324       22.5163652136        7.1458542741
  O        -1.9320426408       23.7921220054        7.2472973264
  O        -0.7853386829       18.9326185852        7.1609503686
  O         1.9501353711       18.3741120436        3.7027142967
  O         6.6282973775       16.9889710305        3.7232831998
  O         5.5435990589       21.6980644034        3.7247105649
  O         0.6293254206       20.1870694514        2.4422854242
  O         3.1954697189       20.1847089906        2.4786105104
  P         1.9522976335       19.2752839547        2.4180185936
 Ca        -2.3571087262       24.5057911587        2.3865231576
  O         5.7569995599       14.9350205669        2.4410501872
  O         4.4632113525       17.1551742570        2.4733309807
  P         5.8768538222       16.5353745354        2.4195972749
 Ca        -1.1966392508       18.3469486323        2.4618391288
  O       -11.0966845889       22.0068750835        2.4363431130
  O         6.4749579229       19.7659534413        2.4647416125
  P         6.3048998030       21.3009885729        2.4130916790
 Ca         3.5566034795       22.4380486521        2.4660683324
  O         4.0892038373       20.6129146236        6.0201654526
  O         1.5152903427       20.6041627520        6.0065514917
  P         2.7596679460       21.5149776953        6.0093799085
 Ca         6.9519849655       16.3662383372        5.9711236767
  O        -1.0726054763       25.8795656337        6.0271707763
  O         0.2326825104       23.6601168006        5.9705474595
  P        -1.1684886444       24.2945126516        5.9993021717
 Ca         5.9860546709       22.3300377586        5.9787879520
  O        -3.0455209273       18.7981598885        6.0146403917
  O        -1.7814662939       21.0375935166        5.9909758589
  P        -1.5943595030       19.5014398878        6.0100879871
 Ca         1.1438846570       18.4637606122        5.9090177419
 Ca         0.0009977973       21.7606816212        1.0334385071
 Ca         4.7136281024       19.0543354391        4.0006703776
 Ca         4.7097251501       19.0638694714        7.5083630956
 Ca         0.0093949610       21.7197697466        4.4425813037
  O        -0.0698859499       16.3249247158        9.7395060816
  H         0.2078488777       16.3118091559        8.8154511962
  O        -0.3720270314       16.3304322768        5.2550675580
  H         0.3901672648       16.3435602470        4.6061553869
  O         0.6232760195       16.3106137608        6.7762632164
  H        -0.1303970809       16.3513462683        7.5060971736
  O         0.0080161687       16.3236070178        2.2995681875
  H        -0.1005627095       16.3212445294        3.2580626571
  O       -12.2608216146       26.5163161852        1.2138509316
  O        -7.4118383444       25.0889129800        1.2191620932
  O        -8.5982773865       29.9979089682        1.2137216477
  O       -11.4195643476       30.5264602298        4.6938789735
  O       -15.9775492023       31.9659492758        4.6849753430
  O       -14.9617867365       27.1817605555        4.7288205425
  O       -11.3931165132       30.5866566763        7.2236683438
  O       -16.1821887169       31.9860656799        7.1709425599
  O       -14.9138109718       27.2253285132        7.2429823771
  O       -12.1919074136       26.5386013861        3.7076257907
  O        -7.5449703152       25.1561375588        3.7254674523
  O        -8.6159328079       29.8974363551        3.7039161144
  O       -13.5179651749       28.3470086136        2.4472083125
  O       -10.9447395099       28.3472750851        2.4820268161
  P       -12.1904657883       27.4375719207        2.4171471893
 Ca       -16.5048746544       32.6548998709        2.4430657877
  O        -8.3792203939       23.0923617626        2.4352352755
  O        -9.6798618039       25.3202668889        2.4652725338
  P        -8.2675720934       24.6977760394        2.4120965349
 Ca       -15.3314281782       26.5021635057        2.3969250184
  O        -6.3902781261       30.1701753809        2.4376185859
  O        -7.6629118508       27.9330884972        2.4687281150
  P        -7.8321842484       29.4678023772        2.4193460605
 Ca       -10.5694678154       30.5906277383        2.4275551655
  O       -10.0671485892       28.7738255788        6.0140173975
  O       -12.6423149245       28.7793297361        5.9729031126
  P       -11.3832262255       29.6699194006        6.0048418396
 Ca        -7.2377567854       24.4907875062        5.9900046979
  O         3.6512148120        1.3918240003        6.0247807916
  O       -13.8541856532       31.8367911452        5.9884046568
  P       -15.2868933797       32.4270707171        6.0156941410
 Ca        -8.3046883840       30.7311132261        5.9328269517
  O         1.6875678151       26.9400970413        6.0259835493
  O       -15.8736158112       29.1665697257        5.9641745078
  P       -15.7274433967       27.6351273692        6.0024865297
 Ca       -12.8380058284       26.6266706698        5.9327135103
 Ca       -14.1322146611       29.9283236010        1.0242544313
 Ca        -9.3988501766       27.2171118875        4.0102270072
 Ca        -9.4030523592       27.2205197456        7.5036761276
 Ca       -14.1195933511       29.9732565113        4.4378468784
  O         4.7171899254       24.4232413905        9.7525289126
  H         4.7022754561       24.6893992147        8.8225195500
  O         4.5364216657       23.9950077794        5.1812039594
  H         4.7875670135       24.7664975669        4.6385484539
  O         4.5430658870       25.0190662586        6.7943103747
  H         4.7631091849       24.3168714003        7.5462724706
  O         4.7137245198       24.4910145455        2.2965354055
  H         4.7060010610       24.3943058171        3.2561959921
  O        -2.8308981865       26.5180349017        1.2119774590
  O         2.0082800920       25.0961023818        1.2151924768
  O         0.8264128520       30.0021386302        1.2197961604
  O        -2.0741872581       30.4433592508        4.6649389433
  O        -6.5190822508       31.9767213056        4.6836230441
  O        -5.5579349405       27.3350940482        4.6755229248
  O        -1.8651023955       30.6580357023        7.1633438864
  O        -6.6937226351       31.9986466966        7.2034779115
  O        -5.5025335314       27.1001936257        7.1614683294
  O        -2.7569049739       26.5362033433        3.7021978109
  O         1.9427878204       25.1503249070        3.7092837925
  O         0.8361046393       29.8483329403        3.7222702884
  O        -4.0809497167       28.3478725370        2.4381940249
  O        -1.5151069912       28.3480250534        2.4768463119
  P        -2.7595254142       27.4384337851        2.4185391168
 Ca        -7.0964369792       32.6634829954        2.4719698641
  O         1.0477603957       23.0974137303        2.4401431865
  O        -0.2396465621       25.3177567516        2.4775014789
  P         1.1739378562       24.6984181519        2.4212525371
 Ca        -5.9029981149       26.5060105958        2.4678011022
  O       -15.8071673473       30.1666343514        2.4393726214
  O         1.7625092967       27.9271953072        2.4652634843
  P         1.5948960989       29.4614892087        2.4118500359
 Ca        -1.1543652069       30.6101882532        2.4787639383
  O        -0.6178196418       28.7732381911        6.0244324926
  O        -3.1957279424       28.7486574169        5.9984054475
  P        -1.9604965081       29.6704470059        6.0148309452
 Ca         2.3498220946       24.4485761191        5.9242480144
  O        13.0906486057        1.4049388505        6.0147937249
  O        -4.4242822291       31.8242179766        5.9788467630
  P        -5.8420399751       32.4277481212        6.0207751150
 Ca         1.2440064319       30.5285225253        5.9664478884
  O        -7.7554747938       26.9489652577        6.0171480167
  O        -6.5090796896       29.2144626754        5.9895320919
  P        -6.3113902939       27.6818670825        6.0083951701
 Ca        -3.5888421390       26.5920761512        5.9067347105
 Ca        -4.7170183440       29.9256484629        1.0429126391
 Ca        -0.0103865057       27.2135482128        3.9983236882
 Ca        -0.0143008152       27.2202124238        7.5070496466
 Ca        -4.7192519299       29.9055007566        4.4594789334
  O        -4.7585641358       24.4838278737        9.7728794840
  H        -4.5369294453       24.4821561349        8.8330893752
  O        -5.0932253833       24.5147950204        5.1773623041
  H        -4.3394070766       24.4642626874        4.5753628412
  O        -4.0662881348       24.4659582522        6.8598287320
  H        -4.8318248449       24.4999440137        7.5175678181
  O        -4.7022434469       24.4839878187        2.2882162873
  H        -4.8038613992       24.4926871039        3.2466384008
  O         0.4213270223       15.1939320370       16.0649764180
  C         0.0930015250       16.3320215228       16.0620671890
  O        -0.2158079300       17.4201339418       16.0688838133
     387
 i =       19, E =     -6919.7453271507
  O         1.8614178589        2.0362707003        1.2036969505
  O         6.7230522042        0.5968084973        1.2072596648
  O         5.5457486590        5.5242347005        1.2126517873
  O         2.7064776971        6.0488475931        4.6942098292
  O        -1.7462862895        7.4457045868        4.6255815589
  O        -0.8349818597        2.6959823102        4.7263346773
  O         2.8174284698        6.1425651712        7.2047624288
  O        -2.1340224703        7.5417685220        7.1209618296
  O        -0.7962079928        2.7948894726        7.2682898117
  O         1.9471646574        2.0518957630        3.6968377748
  O         6.6590557540        0.6560740148        3.7063806293
  O         5.5404649816        5.3812081381        3.7089389037
  O         0.6115959481        3.8675907842        2.4481709998
  O         3.1688360742        3.8744962928        2.4904763086
  P         1.9336401765        2.9534902341        2.4136130950
 Ca        -2.3678034496        8.1901486218        2.4433171650
  O       -13.0858065107       31.2464005362        2.4447303455
  O         4.4688271054        0.8085043917        2.4832758396
  P         5.8876311136        0.2047688031        2.4170554041
 Ca        -1.1902484208        2.0042672488        2.3818796841
  O         7.7562326130        5.6834797411        2.4354989535
  O         6.5006477667        3.4542158392        2.4724074863
  P         6.3135519245        4.9824748048        2.4107653069
 Ca         3.5626223014        6.1220705109        2.4275982531
  O         4.0933533350        4.2779578761        6.0190065296
  O         1.5390644452        4.2775403756        5.9632624599
  P         2.7745295438        5.2020780498        6.0200722657
 Ca         7.2047561012       -0.0070215955        5.9777893316
  O        -1.0424579265        9.5557338541        6.0346953014
  O         0.2075408158        7.3267037888        6.0180300108
  P        -1.2040718744        7.9572032751        5.9993026763
 Ca         5.9046105464        5.9699645787        5.9599487803
  O        15.8058112712        2.4640653679        6.0284450775
  O        -1.7388767197        4.6707964624        5.9581062349
  P        -1.6053431901        3.1328884527        6.0020456898
 Ca         1.3013633903        2.1077602300        5.9408733349
 Ca        -0.0009825123        5.4452616079        1.0640094574
 Ca         4.7196487502        2.7115862199        4.0094550050
 Ca         4.7095717798        2.6997416500        7.4714325917
 Ca         0.0246180306        5.4638226163        4.4295006611
  O         0.0234094725       -0.0716340431        9.7524147470
  H        -0.0578024980        0.2416091027        8.8352229777
  O        -0.1682674022       -0.5015144498        5.0259694198
  H         0.0508261687        0.3807505900        4.6184292517
  O        -0.2223630138        0.5966670518        6.9547921309
  H         0.0829254906       -0.1622855525        7.5245205420
  O         0.0053214971        0.0125139886        2.3514920836
  H         0.0036377175       -0.1231971393        3.3053157103
  O        11.2902271782        2.0441142481        1.2064570554
  O        16.1439485199        0.5993128252        1.2026822806
  O        14.9694009024        5.5278747362        1.2117112867
  O        12.1717792440        6.0617099356        4.7102033239
  O         7.6756635761        7.4502734496        4.6286120810
  O         8.5669863687        2.8267725538        4.6735853791
  O        12.1978939103        6.1231821702        7.2113851992
  O         7.2913708304        7.5461296231        7.1307030876
  O         8.6260335108        2.6180693934        7.1943515231
  O        11.4345953011        2.1198540492        3.6975734476
  O        16.0826672784        0.6713637041        3.6871032241
  O        14.9648648235        5.3934738442        3.7120702004
  O        10.0459615541        3.8735653545        2.4362688644
  O        12.6106758729        3.9027175580        2.4672644895
  P        11.3773165890        2.9791692149        2.4022286019
 Ca         7.0492392804        8.1900529410        2.4526937297
  O        -3.6604216838       31.2497965329        2.4308144708
  O        13.8889454839        0.8038172098        2.4780460995
  P        15.3085011963        0.2028380018        2.4148959793
 Ca         8.2501010430        2.0135729904        2.4426869475
  O        -1.6670025957        5.6796520547        2.4388684180
  O        15.9183586716        3.4618346560        2.4773570916
  P        15.7343378997        4.9887572062        2.4130044045
 Ca        12.9844749222        6.1299784839        2.4226145031
  O        13.5330133999        4.2927209607        6.0283639517
  O        10.9654731504        4.2396666040        5.9509057304
  P        12.1872735854        5.1851892602        6.0198649470
 Ca        16.5365006692       -0.0612247430        5.9082902292
  O         8.3851706386        9.5539673696        6.0366973302
  O         9.6168766927        7.3107064575        6.0161500000
  P         8.2130799600        7.9579468930        6.0044343863
 Ca        15.3312870610        5.9598268804        5.9631125744
  O         6.3664361921        2.4818479116        6.0181119763
  O         7.6712870857        4.6932253013        5.9859210114
  P         7.8297052252        3.1573789261        6.0102566320
 Ca        10.5884740637        1.9631706611        5.9431566605
 Ca         9.4204369912        5.4417803071        1.0717433273
 Ca        14.1175111647        2.7056332949        4.0032504690
 Ca        14.0990594234        2.6982728291        7.4706007398
 Ca         9.4257565107        5.4182167444        4.4445560251
  O         9.4148515780        0.0646583036        9.9307437753
  H         9.4427654698       -0.2510051860        9.0052433472
  O         9.8494334447        0.1209452978        4.7687199596
  H         8.9915833272       -0.1189897028        4.2975974374
  O         9.2309539897       -0.2820870783        7.1207014457
  H         9.2927921040        0.3782839015        7.9417415839
  O         9.3963793473       -0.0095481518        2.1704574310
  H         9.5575031611        0.0728100876        3.1238121612
  O        -2.8510895327       10.2001864690        1.2089175303
  O         2.0197988542        8.7568190221        1.2015482259
  O         0.8355091158       13.6960453272        1.2062126320
  O        -2.0755061162       14.1345276871        4.6474819417
  O        -6.6538628712       15.6991068831        4.6973783495
  O        -5.5665082293       10.8840666500        4.7162077443
  O        -1.8607217193       14.3728053709        7.1383673002
  O        -6.6825495989       15.6446925760        7.2429361077
  O        -5.5158918671       10.9099736810        7.2438020073
  O        -2.7254057225       10.2582547975        3.7052828064
  O         1.9655338562        8.8187601232        3.6977218827
  O         0.8078996167       13.5961933233        3.6958124439
  O        -4.0927793500       12.0327633171        2.4405912737
  O        -1.5311239995       12.0565633127        2.4711753111
  P        -2.7618465371       11.1304661753        2.4105505585
 Ca        -7.0784894444       16.3251505547        2.4078154629
  O         1.0563863309        6.7607304769        2.4441188131
  O        -0.2239616226        8.9716217075        2.4901233280
  P         1.1915736161        8.3618384271        2.4139858551
 Ca        -5.8843024487       10.1868982373        2.4021670116
  O         3.0475080858       13.8564275982        2.4457674673
  O         1.7787797027       11.6363370686        2.4872105187
  P         1.5963820827       13.1663290858        2.4098572193
 Ca        -1.1667719216       14.2956746379        2.4524282561
  O        -0.6133676958       12.4538799069        6.0426417396
  O        -3.1668537887       12.4336531991        6.0025025476
  P        -1.9466216763       13.3739423534        6.0029861523
 Ca         2.2009807381        8.1128279229        5.9509633163
  O        -5.7535697154       17.7329332064        6.0380827796
  O        -4.5418060116       15.4535016854        5.9477697449
  P        -5.9321818558       16.1267678935        6.0222320720
 Ca         1.1522425344       14.1556046620        5.9235337307
  O        11.0801253280       10.6165737504        6.0405655685
  O        -6.4761979096       12.8415092852        5.9469854806
  P        -6.3189724297       11.3098800533        6.0168976211
 Ca        -3.5167595596       10.2848239325        5.9800209042
 Ca        -4.7081247467       13.6013732229        1.0706400772
 Ca        -0.0244940286       10.8897798885        3.9957282296
 Ca        -0.0186973750       10.8914994725        7.4756454573
 Ca        -4.6760155724       13.5930029477        4.4376060245
  O        14.2288497986        8.1185912476        9.6451613453
  H        13.8622911223        8.2843379917        8.7578262754
  O        14.6821418655        8.0640222529        5.2438303058
  H        13.8391808162        8.1916883968        4.7351935495
  O        13.7899559548        8.5297195383        6.7696325601
  H        14.3656539894        8.0147786860        7.4867075435
  O        14.1342010099        8.1594704233        2.3884346378
  H        14.2370722442        8.1367789333        3.3386805909
  O         6.5727610760       10.2017416210        1.2095184663
  O        11.4464030748        8.7553886055        1.1990104697
  O        10.2606315966       13.6932434808        1.2123210126
  O         7.3148555489       14.0983349597        4.6261586377
  O         2.7215677186       15.7016858028        4.7364818746
  O         3.8620431222       10.8983772182        4.7190933651
  O         7.5874730181       14.3916768171        7.1111302925
  O         2.7794770875       15.6288641848        7.2692073792
  O         3.9006275493       10.9323112340        7.2534153414
  O         6.7010485662       10.2627786948        3.7041804725
  O        11.3896512397        8.8170308369        3.6946076759
  O        10.2522336784       13.5435099648        3.7162137961
  O         5.3265687743       12.0342081671        2.4425198558
  O         7.8902129762       12.0581681405        2.4684434089
  P         6.6616271583       11.1313630277        2.4108972417
 Ca         2.3399937461       16.3398480538        2.3655774430
  O        10.4820249276        6.7591613254        2.4413731114
  O         9.1997361325        8.9710805660        2.4898241271
  P        10.6140871328        8.3606739735        2.4099935292
 Ca         3.5373319351       10.1832001367        2.3950618690
  O        -6.3771166162       13.8469422924        2.4388134532
  O        11.2105674451       11.6185136763        2.4714029241
  P        11.0231805404       13.1476733363        2.4132021378
 Ca         8.2705381053       14.2768143874        2.4413510098
  O         8.8052830493       12.4532271765        6.0443066053
  O         6.2426007327       12.4222030018        6.0173654716
  P         7.4725550610       13.3607421892        5.9971518055
 Ca        11.5954573317        8.1301697106        5.9430765248
  O         3.6400585273       17.7311875647        6.0387564223
  O         4.9136443599       15.5091473455        5.9434603132
  P         3.5052218926       16.1405113342        6.0137515829
 Ca        10.7076235490       14.1886535525        5.9971971298
  O         1.6603288409       10.6211503770        6.0395040128
  O         2.9365601247       12.8559476098        5.9533471941
  P         3.0996014653       11.3220884542        6.0116543011
 Ca         5.9127500395       10.2401243920        5.9660552118
 Ca         4.7188405236       13.6017839423        1.0654247139
 Ca         9.4093603283       10.9028118826        3.9970649961
 Ca         9.4168689611       10.8937432204        7.4727213510
 Ca         4.7546187619       13.5719354416        4.4268423220
  O         4.7811490635        8.1128312804        9.6831783271
  H         4.4737394273        8.3117970333        8.7844319386
  O         5.2431097163        8.0695112140        5.1827071475
  H         4.3945413350        8.2067442105        4.6975003821
  O         4.3700241659        8.6517641150        6.8717752113
  H         4.8702436660        7.9930791886        7.4792022835
  O         4.7044363407        8.1595855445        2.3780876900
  H         4.8151267827        8.1301230817        3.3285215747
  O        -7.5671026228       18.3529872780        1.1966961724
  O        -2.6936777422       16.9165533262        1.2185802431
  O        -3.8786909808       21.8546636218        1.2043602294
  O        -6.7805981521       22.3055751458        4.6444446524
  O       -11.2994707159       23.8052956796        4.6635544493
  O       -10.2540247419       19.0255425066        4.7116101458
  O        -6.5560009152       22.5428424807        7.1607990771
  O       -11.5045991158       23.8353206395        7.1845690204
  O       -10.2069916232       19.0316477675        7.2363478545
  O        -7.4806639196       18.3722419457        3.6920350540
  O        -2.8406874843       16.9992309481        3.7297091172
  O        -3.9055007988       21.7589085797        3.6930598937
  O        -8.8099990828       20.1864806457        2.4426062198
  O        -6.2514339949       20.1918416105        2.4903564814
  P        -7.4889245459       19.2729631641        2.4064039174
 Ca       -11.7987311389       24.4825474577        2.4282486610
  O        -3.6712977677       14.9283853522        2.4319332798
  O        -4.9725973805       17.1324606883        2.4685420798
  P        -3.5559628650       16.5290547126        2.4129952575
 Ca       -10.6133144935       18.3391846576        2.4155928501
  O        -1.6677795230       22.0213144625        2.4454962933
  O        -2.9332793876       19.7988480343        2.4831518395
  P        -3.1173863606       21.3287944748        2.4085521945
 Ca        -5.8707635185       22.4557823498        2.4548993434
  O        -5.3448582666       20.6068309160        6.0315514691
  O        -7.9038951258       20.6765315102        6.0084880802
  P        -6.6446568116       21.5657398530        6.0060782071
 Ca        -2.5534566137       16.3472328041        5.9987396888
  O       -10.4720523476       25.8886756775        6.0419790509
  O        -9.2487946309       23.6386123780        5.9843270164
  P       -10.6521853179       24.2785430434        6.0083966873
 Ca        -3.5658381094       22.3315652851        5.9212854396
  O         6.3722091935       18.7887504763        6.0275049531
  O       -11.1523205745       20.9879281493        5.9371148127
  P       -10.9982175644       19.4559695349        6.0248590177
 Ca        -8.1440495413       18.5527791245        5.9382682023
 Ca        -9.4202865045       21.7623615840        1.0711869952
 Ca        -4.6916623913       19.0438126695        3.9963054157
 Ca        -4.7030197638       19.0614804291        7.4796878304
 Ca        -9.4033144322       21.7905215088        4.4361773381
  O        -9.4946327551       16.2298845508        9.6252415399
  H        -9.2357061873       16.5549631554        8.7460085402
  O        -9.7162415306       15.8466003533        5.3388916687
  H        -9.2804839177       16.5226702510        4.7410828633
  O        -9.1453985391       16.6080079129        6.6539455981
  H        -9.6172328483       16.0815964264        7.5264606571
  O        -9.4245681284       16.3232585902        2.3946524280
  H        -9.4830441353       16.2449009013        3.3441623207
  O         1.8631756228       18.3583884634        1.1968092398
  O         6.7269145444       16.9169651207        1.2132739896
  O         5.5455650931       21.8538703659        1.2143452238
  O         2.5988490187       22.2531379040        4.6345191179
  O        -1.9728266000       23.8715842176        4.7362652614
  O        -0.8477767052       19.2044444501        4.6584073595
  O         2.8861571677       22.5198386197        7.1311060178
  O        -1.9007254971       23.7857053862        7.2705437068
  O        -0.7954516539       18.9110593681        7.1524706228
  O         1.9502846235       18.3720221507        3.6877088219
  O         6.6216830408       16.9881920209        3.7144893370
  O         5.5451014050       21.6828248329        3.7185986665
  O         0.6246762295       20.1906327284        2.4405994913
  O         3.1737109652       20.1962080698        2.4852965804
  P         1.9404801476       19.2750888454        2.4078366161
 Ca        -2.3729410657       24.5038454631        2.3681252098
  O         5.7518457361       14.9290474892        2.4376120774
  O         4.4629808314       17.1295629865        2.4790334228
  P         5.8805574691       16.5253540255        2.4157964669
 Ca        -1.1927632037       18.3374452823        2.4606338434
  O       -11.0898747171       22.0067666768        2.4331596535
  O         6.5005568037       19.7756046506        2.4658700466
  P         6.3140030641       21.3050410223        2.4085533676
 Ca         3.5610426484       22.4447606834        2.4670560049
  O         4.0981084147       20.5998547860        6.0253507868
  O         1.5354921292       20.6065830841        6.0143383811
  P         2.7797676701       21.5197046479        6.0014115510
 Ca         6.9168530921       16.3740209119        5.9691487126
  O        -1.0755040987       25.8975640213        6.0407527764
  O         0.2187369912       23.6801521355        5.9545604232
  P        -1.1869619879       24.3112114617        6.0060774638
 Ca         5.9813571481       22.3145671992        5.9708238948
  O        -3.0633982170       18.7993830663        6.0169411625
  O        -1.7956027655       21.0153999831        5.9879643031
  P        -1.6038851155       19.4841343092        6.0044009765
 Ca         1.1497408862       18.4870803440        5.9003556992
 Ca         0.0029267996       21.7597181697        1.0754469834
 Ca         4.7156857577       19.0581448334        3.9921997134
 Ca         4.7063210540       19.0666162076        7.4782972125
 Ca         0.0142021561       21.7063998127        4.4432855121
  O        -0.1136324482       16.3254891468        9.6606789806
  H         0.2917955451       16.3073966105        8.7806858599
  O        -0.3645471252       16.3295985114        5.2875651174
  H         0.4303542228       16.3478027634        4.7038291930
  O         0.6868495443       16.3099166178        6.7927202025
  H        -0.1269300197       16.3576882250        7.4239629378
  O         0.0047785158       16.3240509962        2.3902888931
  H        -0.1306656705       16.3204514037        3.3387154651
  O       -12.2778898251       26.5179814830        1.2013370040
  O        -7.4068131819       25.0758468490        1.2140237523
  O        -8.5874097041       30.0048961252        1.2040412881
  O       -11.4223508152       30.5342921329        4.6907239068
  O       -15.9582753218       31.9537935272        4.6748485047
  O       -14.9532559421       27.1577289727        4.7363254671
  O       -11.4026057071       30.5687168996        7.2364413682
  O       -16.1888471095       31.9904082601        7.1638829569
  O       -14.9154689025       27.2389673523        7.2628978555
  O       -12.1906420429       26.5368025357        3.6955033056
  O        -7.5599326350       25.1617016614        3.7213582793
  O        -8.6197480124       29.8928516856        3.6897417944
  O       -13.5272527724       28.3506982166        2.4456854026
  O       -10.9705218219       28.3591941372        2.4913393886
  P       -12.2040354945       27.4370254510        2.4104105252
 Ca       -16.5209265902       32.6489730053        2.4371460487
  O        -8.3833047458       23.0871322775        2.4322834116
  O        -9.6856939441       25.2955457963        2.4666699588
  P        -8.2702316200       24.6904202901        2.4054947933
 Ca       -15.3199183215       26.4866214646        2.3842925556
  O        -6.3856744825       30.1714450622        2.4355476126
  O        -7.6392996680       27.9464344235        2.4731559852
  P        -7.8261539548       29.4775149280        2.4096434488
 Ca       -10.5627293397       30.5920260199        2.4112030515
  O       -10.0701103226       28.7603134259        6.0160014739
  O       -12.6340676179       28.7904099727        5.9620188881
  P       -11.3709550325       29.6744506115        6.0000626235
 Ca        -7.2461516054       24.5092601745        5.9815650731
  O         3.6521708147        1.4033872511        6.0360161847
  O       -13.8508278601       31.8691577901        5.9858024704
  P       -15.2931065691       32.4342517119        6.0122424011
 Ca        -8.2900950757       30.7381351839        5.9255368841
  O         1.6772996257       26.9312584139        6.0406818369
  O       -15.8725630388       29.1409775439        5.9485047579
  P       -15.7264847854       27.6073392972        6.0074521153
 Ca       -12.8091007300       26.6361144336        5.9398542681
 Ca       -14.1307008318       29.9282841047        1.0634855082
 Ca        -9.3872010024       27.2189282751        4.0008661666
 Ca        -9.3922693599       27.2281976005        7.4734936630
 Ca       -14.1161755282       29.9927884895        4.4358700217
  O         4.7250456614       24.3871105745        9.6770612243
  H         4.6928298221       24.7749715522        8.7906995141
  O         4.5167226856       23.9796114701        5.2056288532
  H         4.8089707361       24.7876674978        4.7189388389
  O         4.5043869963       25.0667942660        6.8199729676
  H         4.7702908317       24.3080116572        7.4728804207
  O         4.7140437017       24.4865656657        2.3850236841
  H         4.7027954722       24.3711121923        3.3352198772
  O        -2.8451100617       26.5200319650        1.1974771426
  O         2.0126947471       25.0820177773        1.2032079054
  O         0.8355254097       30.0128691128        1.2137736686
  O        -2.1094054908       30.4088753557        4.6469093863
  O        -6.4814344572       31.9633084726        4.6743093273
  O        -5.5645402382       27.3693891077        4.6630364252
  O        -1.8362549166       30.6603330896        7.1528375641
  O        -6.6864660343       32.0139450996        7.2052547366
  O        -5.5157510316       27.0826686587        7.1505055298
  O        -2.7559342560       26.5321907552        3.6857940965
  O         1.9442930454       25.1505465766        3.6944252384
  O         0.8393502632       29.8293428646        3.7175848207
  O        -4.0851143793       28.3508032667        2.4353154865
  O        -1.5366218310       28.3602657607        2.4834761693
  P        -2.7709198020       27.4392056361        2.4085045988
 Ca        -7.1065043150       32.6606505322        2.4819534392
  O         1.0442322433       23.0909071439        2.4369337514
  O        -0.2400733681       25.2914865205        2.4849596813
  P         1.1785318473       24.6884488915        2.4141719563
 Ca        -5.8954682825       26.4946519666        2.4708947986
  O       -15.7979287912       30.1670225086        2.4359624706
  O         1.7893911920       27.9337994326        2.4651100165
  P         1.6048036678       29.4626749300        2.4051568190
 Ca        -1.1499228835       30.6228245346        2.4874136279
  O        -0.6065795791       28.7591623662        6.0322619009
  O        -3.1743021792       28.7457926541        6.0032425083
  P        -1.9405886711       29.6686404297        6.0110025115
 Ca         2.3204846071       24.4485733513        5.9173048959
  O        13.0952072061        1.4165977450        6.0200198063
  O        -4.4070211476       31.8479184859        5.9735811449
  P        -5.8336191504       32.4375333083        6.0169811298
 Ca         1.2461699740       30.5138755392        5.9568211440
  O        -7.7730528750       26.9466555899        6.0203118937
  O        -6.5419786458       29.2020722983        5.9869247570
  P        -6.3250142408       27.6722415086        6.0041023166
 Ca        -3.5928871666       26.6147987827        5.8943377467
 Ca        -4.7167099488       29.9270958323        1.0890209364
 Ca        -0.0124661237       27.2173103095        3.9894283313
 Ca        -0.0190404485       27.2219666679        7.4752603955
 Ca        -4.7246043693       29.9062824567        4.4692220455
  O        -4.7912257149       24.4835291278        9.7093136068
  H        -4.4580888726       24.4802670371        8.8045334662
  O        -5.0797001840       24.5147303485        5.2144977810
  H        -4.2800403514       24.4617513887        4.6500831319
  O        -4.0023775364       24.4661399840        6.8740023086
  H        -4.8271314556       24.5055703846        7.4429358882
  O        -4.7038123433       24.4836604962        2.3751167609
  H        -4.8352635701       24.4954905836        3.3247052101
  O         0.4331964557       15.1713654007       16.0666405012
  C         0.0976790803       16.3295870591       16.0623489726
  O        -0.2262279509       17.4397094948       16.0688163371
     387
 i =       20, E =     -6919.8223552054
  O         1.8475610157        2.0405372263        1.1936273173
  O         6.7195510621        0.5871704456        1.1986262862
  O         5.5535240496        5.5287033387        1.2079155869
  O         2.7002980538        6.0576613292        4.6855992902
  O        -1.7292797805        7.4309917750        4.5900428337
  O        -0.8222861381        2.6620709574        4.7372339218
  O         2.8450885084        6.1361581920        7.2051412413
  O        -2.1680132788        7.5581700774        7.1050244588
  O        -0.8114547807        2.8349480247        7.3014047218
  O         1.9549871981        2.0451605263        3.6953837368
  O         6.6682778002        0.6567647106        3.7036808196
  O         5.5352493073        5.3623347571        3.7070122690
  O         0.6077850987        3.8741247210        2.4498375158
  O         3.1557198727        3.8878419422        2.5075447164
  P         1.9236935614        2.9563792093        2.4075497109
 Ca        -2.3742214404        8.1892199013        2.4493461668
  O       -13.0923396253       31.2420791454        2.4462711773
  O         4.4686369643        0.7918749592        2.4977935836
  P         5.8931884920        0.1943125221        2.4149698126
 Ca        -1.1798674346        1.9797848985        2.3787595115
  O         7.7620180930        5.6746036623        2.4338880354
  O         6.5199990230        3.4537006831        2.4760974468
  P         6.3237758845        4.9829566930        2.4049131729
 Ca         3.5716017538        6.1357361273        2.4344498532
  O         4.0895342206        4.2603550952        6.0230383520
  O         1.5485632496        4.2847663812        5.9540876645
  P         2.7916518462        5.2093442674        6.0132638834
 Ca         7.1853696300       -0.0049552775        5.9969061010
  O        -1.0302079830        9.5557119422        6.0458421141
  O         0.1932753948        7.3251288320        6.0292371986
  P        -1.2214955530        7.9587902189        5.9795932687
 Ca         5.8978108131        5.9600102895        5.9409726869
  O        15.7931280213        2.4674087232        6.0451898553
  O        -1.7322377076        4.6556773143        5.9299079273
  P        -1.6058433660        3.1220833001        6.0084032547
 Ca         1.3339186535        2.1297535309        5.9489485250
 Ca        -0.0009780074        5.4458670517        1.0988288016
 Ca         4.7257937542        2.7093118232        4.0059552043
 Ca         4.7133008118        2.6916175672        7.4449982150
 Ca         0.0281889127        5.4757023315        4.4226741987
  O         0.0483207675       -0.1159297371        9.6455014238
  H        -0.0918107117        0.3552192748        8.7755587966
  O        -0.1951659809       -0.4329651273        5.0327135600
  H         0.0638714855        0.3794510367        4.7191068837
  O        -0.2411719099        0.5896311559        6.9487187178
  H         0.0909591371       -0.1589373509        7.4574593743
  O         0.0092827982        0.0118939890        2.4560187189
  H         0.0005710085       -0.1639298421        3.4320010182
  O        11.2823762209        2.0502637212        1.1975496810
  O        16.1424506615        0.5891780278        1.1884952298
  O        14.9789416383        5.5348767880        1.2082004328
  O        12.1697445103        6.0653191566        4.7102622563
  O         7.6919042373        7.4373490339        4.5946042692
  O         8.5720568104        2.8300949109        4.6684033491
  O        12.2001125919        6.1152962520        7.2118561257
  O         7.2508264756        7.5638336536        7.1130251306
  O         8.6143274655        2.5838881096        7.1882091902
  O        11.4522557716        2.1260699899        3.6980323335
  O        16.0829047923        0.6800448643        3.6811189284
  O        14.9625892861        5.3799814884        3.7104687642
  O        10.0483176736        3.8839935225        2.4350074204
  O        12.6007799699        3.9247912501        2.4679488136
  P        11.3751486010        2.9889262626        2.3954904309
 Ca         7.0409829295        8.1903917268        2.4624377474
  O        -3.6655517556       31.2485860222        2.4293832990
  O        13.8821680721        0.7875610384        2.4856970265
  P        15.3083740024        0.1926143392        2.4050362798
 Ca         8.2612772770        2.0039728353        2.4425009867
  O        -1.6579243599        5.6719725217        2.4361551706
  O        15.9368343952        3.4607466757        2.4836596712
  P        15.7428102116        4.9908491125        2.4085323967
 Ca        12.9908166356        6.1502233481        2.4302906400
  O        13.5348848964        4.2768188902        6.0419584059
  O        10.9892651786        4.2205651353        5.9281150218
  P        12.1988374158        5.1817266078        6.0172174319
 Ca        16.5177257221       -0.0648040934        5.8918354880
  O         8.4000946177        9.5520118930        6.0498014690
  O         9.5998018244        7.2994579994        6.0272664091
  P         8.2015544043        7.9570995746        5.9836167163
 Ca        15.3302384362        5.9378546690        5.9501030467
  O         6.3613679853        2.4943424596        6.0211512941
  O         7.6707084416        4.6798049772        5.9789380721
  P         7.8260801118        3.1451420243        6.0010079653
 Ca        10.6046891408        1.9762254205        5.9306789785
 Ca         9.4199213640        5.4443738330        1.1069030210
 Ca        14.1110700901        2.6966758523        4.0008659181
 Ca        14.0910192695        2.6876521066        7.4422307651
 Ca         9.4211401476        5.4112607792        4.4427935646
  O         9.4025391977        0.1196025742        9.8760932763
  H         9.4561586117       -0.4027519675        8.9977230538
  O         9.8214673165        0.0825068339        4.6820721301
  H         8.9366792534       -0.1155311774        4.4599601003
  O         9.1754395461       -0.2186419437        7.2040434945
  H         9.2628175768        0.4394592600        7.8437563775
  O         9.3849996445       -0.0114552341        2.2176755397
  H         9.6223210680        0.0993089011        3.1779823634
  O        -2.8631588774       10.2060482672        1.2026374767
  O         2.0237697404        8.7422707391        1.1895516643
  O         0.8473860505       13.7087044181        1.1972503520
  O        -2.0911822558       14.1324278220        4.6251775959
  O        -6.6831568722       15.7135153813        4.6964596639
  O        -5.5645453685       10.8631675890        4.7185653902
  O        -1.8358024991       14.3813086799        7.1225219360
  O        -6.6865171549       15.6529084260        7.2498082759
  O        -5.5298411570       10.9259222147        7.2608512501
  O        -2.7085880943       10.2640755369        3.7056590981
  O         1.9623968381        8.8248921169        3.6975014166
  O         0.7974005585       13.5910350673        3.6921458298
  O        -4.0919005914       12.0400598850        2.4442072375
  O        -1.5418662071       12.0714984933        2.4736057871
  P        -2.7698048174       11.1351410586        2.4052386853
 Ca        -7.0965218656       16.3199640236        2.4119315560
  O         1.0532428226        6.7551580238        2.4431249675
  O        -0.2286756423        8.9556871925        2.5023330453
  P         1.1916548971        8.3540731138        2.4090562224
 Ca        -5.8701289679       10.1695127787        2.4080135087
  O         3.0548916457       13.8567123017        2.4469275627
  O         1.7972345509       11.6393967193        2.4995526514
  P         1.6039172495       13.1733345560        2.4041120821
 Ca        -1.1656819879       14.3095378043        2.4576378221
  O        -0.6152316928       12.4445511387        6.0547458051
  O        -3.1604968259       12.4397256591        5.9988303831
  P        -1.9335126093       13.3830572582        5.9897985838
 Ca         2.1913182277        8.1162363668        5.9635842542
  O        -5.7434669162       17.7341034045        6.0603623741
  O        -4.5525040796       15.4476580297        5.9185229521
  P        -5.9397662279       16.1284859022        6.0181267912
 Ca         1.1530102769       14.1314165380        5.9275294326
  O        11.0679394853       10.6205077984        6.0609473081
  O        -6.4708627243       12.8253500796        5.9147344668
  P        -6.3242697244       11.2896360970        6.0165326364
 Ca        -3.5053641986       10.3017900019        5.9901620697
 Ca        -4.7079212473       13.6013205118        1.1016514373
 Ca        -0.0319672874       10.8892564427        3.9893968693
 Ca        -0.0236786176       10.8898094350        7.4515050962
 Ca        -4.6647912108       13.5893541614        4.4328579400
  O        14.2797217434        8.0904867103        9.4828940677
  H        13.7581072238        8.3398387331        8.6778002304
  O        14.6526013322        8.0481228640        5.3008244346
  H        13.8356831920        8.1826637358        4.8059638322
  O        13.8365090689        8.5713441034        6.7935501057
  H        14.3899496845        8.0074935585        7.4119341855
  O        14.1376882425        8.1600972647        2.5024905148
  H        14.2607674577        8.1331779172        3.4774775849
  O         6.5592208838       10.2071808920        1.2023507700
  O        11.4510966850        8.7387679841        1.1869922190
  O        10.2718019932       13.7023131087        1.2100855096
  O         7.2961138003       14.0871736639        4.5932923542
  O         2.6827686145       15.7135261550        4.7499053168
  O         3.8631692707       10.8804283788        4.7241194438
  O         7.6075827832       14.3997011325        7.0941545624
  O         2.8007608009       15.6293833911        7.3041787313
  O         3.8763033976       10.9711239954        7.2770523672
  O         6.7193932814       10.2689935980        3.7045122927
  O        11.3860766592        8.8220277748        3.6950587768
  O        10.2469645230       13.5309084906        3.7169073630
  O         5.3257015767       12.0406108043        2.4451988427
  O         7.8800622379       12.0711987701        2.4686064128
  P         6.6531167099       11.1374078769        2.4045000614
 Ca         2.3171516831       16.3344847300        2.3655072528
  O        10.4798031043        6.7534603040        2.4399808562
  O         9.1930264082        8.9546690982        2.5007311825
  P        10.6149445806        8.3514308845        2.4040179050
 Ca         3.5519857618       10.1660811364        2.3989542243
  O        -6.3705477388       13.8417941097        2.4418036100
  O        11.2303171689       11.6198863700        2.4754206566
  P        11.0318164586       13.1520174213        2.4120779128
 Ca         8.2707287233       14.2826978049        2.4458051788
  O         8.8029989825       12.4424929249        6.0583846927
  O         6.2565627602       12.4252751611        6.0262729337
  P         7.4830861851       13.3696738868        5.9804840111
 Ca        11.5869322532        8.1302402888        5.9553655371
  O         3.6463449025       17.7395745859        6.0614898573
  O         4.8900041229       15.5177871201        5.9053969540
  P         3.4905904051       16.1480949210        6.0180662860
 Ca        10.7190690438       14.1559494289        6.0103618627
  O         1.6434800295       10.6244143005        6.0593156730
  O         2.9295348520       12.8463654354        5.9252700228
  P         3.0923253968       11.3097747392        6.0150254090
 Ca         5.9307683125       10.2593422466        5.9732505637
 Ca         4.7202225307       13.6026046210        1.0962463570
 Ca         9.4052064211       10.9100759740        3.9931745035
 Ca         9.4094932777       10.8982770683        7.4468359601
 Ca         4.7746234176       13.5648804173        4.4252183053
  O         4.8177370258        8.0772088952        9.5448671728
  H         4.3795670245        8.3861133632        8.7060137711
  O         5.2117357929        8.0642017202        5.2216921404
  H         4.3848952972        8.1996085635        4.7749596266
  O         4.4049338575        8.6841265402        6.9002803074
  H         4.8727603776        7.9901083049        7.4040176525
  O         4.7058378738        8.1590378925        2.4886905523
  H         4.8442074749        8.1241067247        3.4671535544
  O        -7.5846311463       18.3561023817        1.1820358550
  O        -2.6927491497       16.9070047771        1.2217381644
  O        -3.8673766837       21.8654160767        1.1925339325
  O        -6.7865423330       22.3136346532        4.6211851156
  O       -11.3220871064       23.8032851995        4.6555391658
  O       -10.2424256710       18.9937882040        4.7121684708
  O        -6.5189104588       22.5585993083        7.1411799022
  O       -11.5343151355       23.8580776431        7.1799117836
  O       -10.2090700241       19.0213746756        7.2414429784
  O        -7.4718299562       18.3731617347        3.6924261259
  O        -2.8486075265       17.0095692740        3.7307685755
  O        -3.9150006298       21.7529112169        3.6902681608
  O        -8.8115928029       20.1915952686        2.4421025594
  O        -6.2642628336       20.2073205668        2.5018447722
  P        -7.4954957096       19.2766396111        2.4027341717
 Ca       -11.8160262407       24.4760397098        2.4310633203
  O        -3.6821181899       14.9316684448        2.4329720385
  O        -4.9828579806       17.1154738743        2.4719336661
  P        -3.5579434584       16.5216845751        2.4136423191
 Ca       -10.6014339385       18.3271571261        2.4222784982
  O        -1.6608481502       22.0214693302        2.4480463667
  O        -2.9158084690       19.8043949538        2.4919499733
  P        -3.1090003821       21.3357933601        2.4026138132
 Ca        -5.8700863167       22.4676911585        2.4610708576
  O        -5.3573111507       20.5968826960        6.0402977121
  O        -7.9108860066       20.6940327970        6.0109610105
  P        -6.6405141596       21.5804175901        5.9966863160
 Ca        -2.5342272705       16.3566303626        5.9755626867
  O       -10.4640878874       25.8887129036        6.0624714118
  O        -9.2684516928       23.6375249701        5.9758875769
  P       -10.6678187059       24.2797807605        6.0017083040
 Ca        -3.5660538117       22.3060304207        5.9227699859
  O         6.3655088910       18.7967115731        6.0450031368
  O       -11.1410498221       20.9706529961        5.8985985279
  P       -10.9967377391       19.4425237842        6.0212689695
 Ca        -8.1340119863       18.5657791975        5.9470794171
 Ca        -9.4190201541       21.7598752759        1.1044466322
 Ca        -4.6890033830       19.0377847774        3.9870422726
 Ca        -4.7003575796       19.0657860373        7.4575518562
 Ca        -9.3998003191       21.7994983019        4.4298644641
  O        -9.5321330389       16.1782934509        9.4360228159
  H        -9.1621083596       16.6457686431        8.6606637220
  O        -9.6981839513       15.8861696022        5.4318869272
  H        -9.2827902492       16.5191906173        4.8011076094
  O        -9.1718042609       16.5596982736        6.6601848577
  H        -9.6455296155       16.0418009853        7.4643378526
  O        -9.4261351866       16.3203107222        2.5108957262
  H        -9.4941550307       16.2299554876        3.4837179640
  O         1.8499907669       18.3635280947        1.1791709502
  O         6.7289162938       16.9054019393        1.2097396476
  O         5.5549123611       21.8604356175        1.2132052699
  O         2.5720831726       22.2323567287        4.6050080549
  O        -2.0097262759       23.8795322714        4.7475388506
  O        -0.8463808867       19.2220775999        4.6429753377
  O         2.9104346580       22.5199107798        7.1172609575
  O        -1.8564175251       23.7828690630        7.3073094849
  O        -0.8096929428       18.8885894363        7.1349112071
  O         1.9577504254       18.3707668928        3.6844056583
  O         6.6138963639       16.9936552747        3.7118450016
  O         5.5392887720       21.6692501356        3.7156738647
  O         0.6245976385       20.1971267509        2.4397948598
  O         3.1636992919       20.2089765845        2.4931080916
  P         1.9350625682       19.2777461336        2.3997132481
 Ca        -2.3947296785       24.5032701257        2.3650404916
  O         5.7404966442       14.9270942679        2.4358497753
  O         4.4550465638       17.1148296448        2.4871110475
  P         5.8801512389       16.5157375189        2.4117119974
 Ca        -1.1874060485       18.3257527755        2.4693716051
  O       -11.0850339214       21.9987142017        2.4325181488
  O         6.5227088718       19.7745852845        2.4677779747
  P         6.3222010218       21.3061243827        2.4076829199
 Ca         3.5658556767       22.4531055003        2.4793652335
  O         4.0995208380       20.5857713406        6.0257495597
  O         1.5404147755       20.6053541903        6.0245889316
  P         2.7906555219       21.5200928446        5.9828674674
 Ca         6.8865915083       16.3741006925        5.9606563010
  O        -1.0698554470       25.9091194263        6.0618986654
  O         0.2054829161       23.6898132035        5.9230682642
  P        -1.1952584197       24.3207455113        6.0150719096
 Ca         5.9649549062       22.3098311563        5.9531830066
  O        -3.0775516106       18.8082513798        6.0139233783
  O        -1.8053464522       21.0082097058        5.9827503214
  P        -1.6133423947       19.4721012127        5.9946555600
 Ca         1.1585297623       18.5029648011        5.8921119436
 Ca         0.0059977495       21.7597437169        1.1119978223
 Ca         4.7186801169       19.0624952046        3.9874719289
 Ca         4.7013471655       19.0674825527        7.4520889111
 Ca         0.0214397572       21.6945233683        4.4421602806
  O        -0.1700534258       16.3260752051        9.5120754703
  H         0.4008734852       16.3017416580        8.7141658432
  O        -0.3335992137       16.3294874916        5.3432481887
  H         0.4686864182       16.3501075288        4.7908989423
  O         0.7055724413       16.3097918219        6.7837864601
  H        -0.1064351561       16.3638393581        7.3558829693
  O         0.0014996028       16.3247773334        2.5081579393
  H        -0.1669431946       16.3190809482        3.4795452045
  O       -12.2956556367       26.5227078335        1.1893568996
  O        -7.4051174820       25.0640375221        1.2141351276
  O        -8.5798211424       30.0065433916        1.1881898263
  O       -11.4156791422       30.5530235884        4.6896319271
  O       -15.9382313535       31.9423508381        4.6628712083
  O       -14.9402612539       27.1171837713        4.7464944397
  O       -11.4098914766       30.5433107358        7.2410048070
  O       -16.1909325068       31.9980707315        7.1491880701
  O       -14.9183158605       27.2546811542        7.2942445253
  O       -12.1814258221       26.5342092612        3.6949731425
  O        -7.5694449937       25.1713986420        3.7203605217
  O        -8.6278397450       29.8840026006        3.6889689581
  O       -13.5310741392       28.3575501909        2.4455006754
  O       -10.9852558913       28.3719769479        2.5063360544
  P       -12.2133647254       27.4396321744        2.4069423882
 Ca       -16.5393065018       32.6420530191        2.4415243249
  O        -8.3940392743       23.0881805936        2.4316241074
  O        -9.6990823810       25.2782178238        2.4677325366
  P        -8.2740496376       24.6865226467        2.4042675342
 Ca       -15.3034489919       26.4651920305        2.3885670611
  O        -6.3809708796       30.1670465264        2.4384462486
  O        -7.6218942309       27.9496962387        2.4791364313
  P        -7.8196247144       29.4788879482        2.4036879467
 Ca       -10.5514719460       30.5993514866        2.4015820871
  O       -10.0855013977       28.7465576251        6.0138025268
  O       -12.6370714404       28.8007014728        5.9398023936
  P       -11.3689004538       29.6796503472        5.9978240967
 Ca        -7.2395188261       24.5270112763        5.9606642904
  O         3.6586829867        1.4081549670        6.0501461280
  O       -13.8444241286       31.9042953401        5.9785638873
  P       -15.2907118525       32.4384581990        6.0040937678
 Ca        -8.2590642241       30.7417230335        5.9149662183
  O         1.6681652246       26.9323920103        6.0657802063
  O       -15.8649003326       29.1169575615        5.9171069553
  P       -15.7218698137       27.5932393881        6.0110040470
 Ca       -12.7925577947       26.6364135130        5.9521935215
 Ca       -14.1286229155       29.9275142011        1.0993208973
 Ca        -9.3733218366       27.2200927113        3.9925132624
 Ca        -9.3808924168       27.2367924511        7.4470915042
 Ca       -14.1147360746       30.0159117066        4.4305358671
  O         4.7383164534       24.3337527385        9.5370043635
  H         4.6766195116       24.8898253488        8.7182025413
  O         4.5179803651       24.0101530557        5.2518491721
  H         4.8266898799       24.7906861333        4.7957410306
  O         4.4752425894       25.0714028880        6.8184481658
  H         4.7689639990       24.3176282178        7.4035865526
  O         4.7150548463       24.4821938834        2.4969838806
  H         4.6972087432       24.3437506056        3.4740701288
  O        -2.8554548961       26.5242006081        1.1804660338
  O         2.0123461791       25.0690003658        1.1909783270
  O         0.8464645639       30.0190666896        1.2139166771
  O        -2.1365043229       30.3796012256        4.6280251243
  O        -6.4426628415       31.9449292031        4.6681009684
  O        -5.5676261327       27.3978014504        4.6514467156
  O        -1.8049548647       30.6608931710        7.1339390250
  O        -6.6792836626       32.0397032580        7.1925013365
  O        -5.5326039151       27.0654227184        7.1332753864
  O        -2.7483247965       26.5281043071        3.6824190891
  O         1.9448192223       25.1562625312        3.6884225006
  O         0.8390771763       29.8088408950        3.7168937487
  O        -4.0834224299       28.3549379263        2.4351795072
  O        -1.5454599425       28.3741860269        2.4918412202
  P        -2.7778923457       27.4441766925        2.3975221737
 Ca        -7.1171116941       32.6562693314        2.5054665392
  O         1.0344459070       23.0868433828        2.4341232138
  O        -0.2486114882       25.2753811946        2.4963121876
  P         1.1784988333       24.6800767628        2.4062372005
 Ca        -5.8878393018       26.4835941888        2.4839754276
  O       -15.7912220258       30.1598248181        2.4341006001
  O         1.8159228006       27.9274033877        2.4651188526
  P         1.6130015232       29.4607360612        2.4021069182
 Ca        -1.1462140794       30.6355452675        2.5079358029
  O        -0.6041992892       28.7469785923        6.0377489664
  O        -3.1658365584       28.7423442886        6.0111653459
  P        -1.9273004003       29.6593955521        5.9961129091
 Ca         2.2856435954       24.4498902024        5.9071894470
  O        13.1041435482        1.4132103418        6.0208525904
  O        -4.3894102657       31.8644358569        5.9701217523
  P        -5.8163079527       32.4443103556        6.0113736455
 Ca         1.2417506336       30.5097226471        5.9357526618
  O        -7.7861820935       26.9533477190        6.0178334848
  O        -6.5795807186       29.1895339099        5.9826475140
  P        -6.3443653698       27.6734666569        5.9926163656
 Ca        -3.5951146408       26.6329337954        5.8802647595
 Ca        -4.7156083803       29.9289448370        1.1257520615
 Ca        -0.0137215131       27.2217131642        3.9839036023
 Ca        -0.0225616768       27.2199554157        7.4479416423
 Ca        -4.7311907524       29.9119509945        4.4755671298
  O        -4.8424077178       24.4832539241        9.5906864458
  H        -4.3475207228       24.4771630258        8.7313936725
  O        -5.0159126007       24.5140455873        5.2725477288
  H        -4.2352447473       24.4593664433        4.7332173161
  O        -3.9858211871       24.4708477192        6.8505580305
  H        -4.8107975125       24.5115563069        7.3779391316
  O        -4.7056025889       24.4821662783        2.4886453669
  H        -4.8755883642       24.4984099916        3.4644110228
  O         0.4377464834       15.1686340889       16.0685072639
  C         0.1063361714       16.3169343275       16.0634925113
  O        -0.2321516547       17.4452310302       16.0689825503
     387
 i =       21, E =     -6920.1361489402
  O         1.8428442998        2.0429695810        1.1877975575
  O         6.7147613181        0.5865126711        1.1923729053
  O         5.5546503064        5.5281197495        1.2051527645
  O         2.7073529598        6.0671804946        4.6841065339
  O        -1.7322664133        7.4293937617        4.5803158508
  O        -0.8141531279        2.6395052918        4.7494762279
  O         2.8574697718        6.1387000699        7.2042743260
  O        -2.1818453885        7.5627160449        7.0946311130
  O        -0.8163836988        2.8477551370        7.3121308466
  O         1.9597638244        2.0400940062        3.6969351544
  O         6.6743683205        0.6608002001        3.7041384732
  O         5.5281232691        5.3594975644        3.7071238738
  O         0.5978265294        3.8678125492        2.4538912519
  O         3.1525091035        3.8868352021        2.5078780663
  P         1.9204184372        2.9574214341        2.4144381952
 Ca        -2.3792621809        8.1893398438        2.4523876206
  O       -13.0830504627       31.2371150679        2.4506012701
  O         4.4733100387        0.7913355161        2.4964447320
  P         5.8977776831        0.1886768489        2.4223725218
 Ca        -1.1766539398        1.9670033289        2.3814111569
  O         7.7600654053        5.6819828921        2.4379765572
  O         6.5217005404        3.4540309201        2.4663688506
  P         6.3264610329        4.9839716469        2.4084457084
 Ca         3.5782270850        6.1414889839        2.4389178275
  O         4.0933628627        4.2646621469        6.0196101409
  O         1.5477208405        4.2904529251        5.9587189319
  P         2.7927538461        5.2061826736        6.0037970468
 Ca         7.1742401996       -0.0054205987        6.0042569020
  O        -1.0395046872        9.5528544679        6.0438514751
  O         0.1887692692        7.3220795278        6.0458055620
  P        -1.2230298805        7.9565342365        5.9708632158
 Ca         5.8928747121        5.9689480546        5.9301422673
  O        15.7986354151        2.4586934311        6.0520714210
  O        -1.7290564642        4.6547447167        5.9178741129
  P        -1.6042038039        3.1197184140        6.0101321868
 Ca         1.3308262405        2.1249161289        5.9523785780
 Ca        -0.0007839982        5.4448536484        1.0908829132
 Ca         4.7288625569        2.7083747649        3.9953568260
 Ca         4.7166013863        2.6891302734        7.4528870222
 Ca         0.0285840696        5.4806630864        4.4279152534
  O         0.0609674072       -0.1331097300        9.6041970548
  H        -0.1085766851        0.4057580372        8.7708530749
  O        -0.2073946561       -0.4632102379        5.0502854680
  H         0.0804011520        0.4332737261        4.7608632681
  O        -0.2489210025        0.6013499283        6.9417908226
  H         0.0998133549       -0.1757859199        7.4374469540
  O         0.0104833602        0.0084290767        2.4860315071
  H        -0.0019662932       -0.1812805206        3.4646142467
  O        11.2835278966        2.0551983700        1.1938954963
  O        16.1402232414        0.5881950403        1.1793158143
  O        14.9814377023        5.5367093623        1.2055924955
  O        12.1723274868        6.0717826855        4.7103697675
  O         7.6877776297        7.4361927252        4.5837678075
  O         8.5759871017        2.8240009194        4.6701925847
  O        12.2017061518        6.1164133215        7.2103566662
  O         7.2355879763        7.5692460306        7.1000818056
  O         8.6127993492        2.5683453669        7.1816654411
  O        11.4578903447        2.1229981348        3.6994426258
  O        16.0841110115        0.6843922886        3.6808824198
  O        14.9560995527        5.3774369591        3.7108954089
  O        10.0411821700        3.8802707957        2.4395751453
  O        12.5996880119        3.9312610025        2.4572062588
  P        11.3733722656        2.9879462827        2.3994115855
 Ca         7.0362447126        8.1913344054        2.4666056747
  O        -3.6556052375       31.2452402999        2.4342476878
  O        13.8844529728        0.7867140460        2.4787649027
  P        15.3101863299        0.1898300507        2.4074981365
 Ca         8.2685067756        1.9932846034        2.4415970559
  O        -1.6575132192        5.6807679027        2.4384561158
  O        15.9389828690        3.4604474350        2.4757181958
  P        15.7463662485        4.9900668385        2.4132559304
 Ca        12.9958893262        6.1585566711        2.4355642884
  O        13.5407684305        4.2827709718        6.0456460816
  O        10.9981469716        4.2138562479        5.9220457398
  P        12.2016987569        5.1779901778        6.0123289293
 Ca        16.5230696296       -0.0629495201        5.8820447722
  O         8.3932139492        9.5476503390        6.0487475137
  O         9.5991206086        7.2925278211        6.0438950005
  P         8.1998416140        7.9530060876        5.9761403843
 Ca        15.3275393047        5.9390195625        5.9420549007
  O         6.3680794451        2.4891512920        6.0173678497
  O         7.6704013015        4.6795233007        5.9885844904
  P         7.8229677729        3.1420839401        5.9916049054
 Ca        10.6039447131        1.9695226113        5.9161580154
 Ca         9.4208239803        5.4449855386        1.0967225404
 Ca        14.1087549839        2.6928839280        3.9908652717
 Ca        14.0904822683        2.6836767907        7.4503686949
 Ca         9.4191350412        5.4088533803        4.4489779245
  O         9.4007905378        0.1371112611        9.8414895601
  H         9.4561678581       -0.4579972360        9.0160412390
  O         9.8292653646        0.0753370914        4.6788485542
  H         8.8924857969       -0.1231728664        4.5121475517
  O         9.1575816149       -0.2249691311        7.2169726436
  H         9.2582480050        0.4966018127        7.8271136662
  O         9.3812589956       -0.0104922304        2.2234944829
  H         9.6432603464        0.1070641853        3.1955829303
  O        -2.8668926392       10.2076372287        1.1985284857
  O         2.0239054406        8.7370766459        1.1842495813
  O         0.8526030412       13.7143943689        1.1914881368
  O        -2.0910937077       14.1385272667        4.6164922071
  O        -6.7044364202       15.7211114987        4.7015269419
  O        -5.5601565758       10.8465049337        4.7214065385
  O        -1.8241877327       14.3887402962        7.1176906514
  O        -6.6900078008       15.6559132870        7.2477621394
  O        -5.5363628051       10.9325418538        7.2691496870
  O        -2.7020328955       10.2618161769        3.7079020403
  O         1.9635899427        8.8299556780        3.7003952965
  O         0.7895641892       13.5909874736        3.6933649929
  O        -4.1005774849       12.0346771123        2.4505699403
  O        -1.5436338011       12.0718978273        2.4625099143
  P        -2.7728529906       11.1371195545        2.4110621166
 Ca        -7.1088555871       16.3195641606        2.4159958061
  O         1.0635921085        6.7503295971        2.4464541333
  O        -0.2263928477        8.9555598715        2.4989199977
  P         1.1928153960        8.3505550757        2.4136547851
 Ca        -5.8656811473       10.1588743007        2.4131836851
  O         3.0541267154       13.8695442344        2.4521598887
  O         1.7985129237       11.6425141143        2.4964816412
  P         1.6061224590       13.1747127008        2.4112330539
 Ca        -1.1619121834       14.3156269718        2.4590487887
  O        -0.6109142204       12.4533557197        6.0513351941
  O        -3.1624629438       12.4447061225        6.0055010864
  P        -1.9338403875       13.3807917338        5.9800786643
 Ca         2.2033803333        8.1180410255        5.9670825451
  O        -5.7532482806       17.7289334351        6.0665155042
  O        -4.5473550040       15.4501255135        5.9082072377
  P        -5.9367500328       16.1267639038        6.0126310415
 Ca         1.1500501115       14.1369907434        5.9279784327
  O        11.0734007788       10.6113394988        6.0646935217
  O        -6.4658843763       12.8212537968        5.9023503947
  P        -6.3236690328       11.2874840467        6.0153022102
 Ca        -3.5091603841       10.2914028820        5.9905351529
 Ca        -4.7086234593       13.6009457513        1.0904786185
 Ca        -0.0343947611       10.8883835308        3.9789584738
 Ca        -0.0261958122       10.8873018400        7.4611135493
 Ca        -4.6603809473       13.5873135746        4.4381261623
  O        14.2989078036        8.0765322949        9.4186781356
  H        13.7137052582        8.3671181503        8.6668506084
  O        14.6561283559        8.0430949473        5.3181592714
  H        13.8163202258        8.1816352199        4.8468658556
  O        13.8476231000        8.5793103728        6.8062656841
  H        14.4018287829        8.0047768177        7.3881755012
  O        14.1392540119        8.1611071074        2.5393278880
  H        14.2727367599        8.1319721578        3.5131068344
  O         6.5540295346       10.2093225476        1.1983518994
  O        11.4521190423        8.7321638577        1.1817699604
  O        10.2755794234       13.7055410688        1.2087024241
  O         7.2941880036       14.0879744598        4.5848417107
  O         2.6591372590       15.7210200566        4.7586868711
  O         3.8650867825       10.8651409782        4.7305579835
  O         7.6146483588       14.4077391241        7.0865894843
  O         2.8143875388       15.6313985933        7.3139215622
  O         3.8685206988       10.9848380076        7.2907208638
  O         6.7253549393       10.2662956725        3.7069469804
  O        11.3873599575        8.8265323210        3.6985449987
  O        10.2401333462       13.5296317634        3.7180221813
  O         5.3164862621       12.0343963151        2.4512127711
  O         7.8786137743       12.0705496697        2.4566271373
  P         6.6499299823       11.1382654823        2.4088441510
 Ca         2.3055807086       16.3344532212        2.3695881501
  O        10.4905056996        6.7489174706        2.4442512745
  O         9.1958641387        8.9542101586        2.4964454414
  P        10.6150741914        8.3473856678        2.4091691875
 Ca         3.5565898975       10.1560216542        2.4040132140
  O        -6.3704772247       13.8521666647        2.4485011606
  O        11.2332973284       11.6209721358        2.4663123410
  P        11.0345536339       13.1543007550        2.4194256389
 Ca         8.2742453122       14.2881077053        2.4482713118
  O         8.8076010687       12.4513465669        6.0548647022
  O         6.2587490504       12.4317097768        6.0407006193
  P         7.4867146324       13.3700033056        5.9697392204
 Ca        11.5949369654        8.1258156774        5.9578314024
  O         3.6370554438       17.7392677102        6.0675397878
  O         4.8796051713       15.5144702209        5.8922648059
  P         3.4822921425       16.1501775920        6.0220825903
 Ca        10.7097590134       14.1620632370        6.0109070070
  O         1.6475786328       10.6147320030        6.0629554296
  O         2.9290391882       12.8464881876        5.9134902943
  P         3.0880431836       11.3104417885        6.0143477520
 Ca         5.9293367031       10.2514153535        5.9727970532
 Ca         4.7198626433       13.6030299401        1.0856517787
 Ca         9.4039330188       10.9120868979        3.9833005182
 Ca         9.4043434099       10.8981616016        7.4560452723
 Ca         4.7825391661       13.5617311330        4.4321753888
  O         4.8330432368        8.0622181936        9.4931103077
  H         4.3398412111        8.4229939922        8.6923916093
  O         5.2228239636        8.0589102911        5.2350405753
  H         4.3566174457        8.2024614728        4.8183157562
  O         4.4034570568        8.6931800332        6.9068499743
  H         4.8820495197        7.9825037699        7.3804551635
  O         4.7078346126        8.1588798085        2.5231760157
  H         4.8581199587        8.1219226849        3.5020244583
  O        -7.5910842773       18.3602734787        1.1773641211
  O        -2.6928519569       16.9063423713        1.2219941217
  O        -3.8623978105       21.8691701829        1.1861893586
  O        -6.7797679339       22.3244207351        4.6148049240
  O       -11.3376505576       23.8083826433        4.6589387646
  O       -10.2351059270       18.9701230582        4.7159276507
  O        -6.5021352424       22.5730264910        7.1305912629
  O       -11.5492246009       23.8695553921        7.1715228874
  O       -10.2092833715       19.0156935809        7.2410541699
  O        -7.4666904259       18.3702410758        3.6956749664
  O        -2.8452155664       17.0154530489        3.7308165982
  O        -3.9221102797       21.7518090626        3.6921818199
  O        -8.8207500889       20.1854829870        2.4465908257
  O        -6.2664514829       20.2066210807        2.4978531012
  P        -7.4991827306       19.2759908160        2.4071418746
 Ca       -11.8260067383       24.4760688121        2.4327460159
  O        -3.6757912430       14.9296217514        2.4389824051
  O        -4.9822406832       17.1136219126        2.4633294501
  P        -3.5579398126       16.5186315673        2.4196771823
 Ca       -10.5955565964       18.3178885820        2.4274623655
  O        -1.6617772867       22.0334882874        2.4535971500
  O        -2.9160114882       19.8072131657        2.4857044832
  P        -3.1070385275       21.3394661724        2.4080049124
 Ca        -5.8677503821       22.4729731724        2.4625038669
  O        -5.3598165691       20.6053160205        6.0389508394
  O        -7.9165399753       20.6966284813        6.0211815625
  P        -6.6459101029       21.5785190916        5.9841820692
 Ca        -2.5245833493       16.3540141844        5.9662172974
  O       -10.4744618253       25.8849985177        6.0651081349
  O        -9.2644972540       23.6387085008        5.9814273912
  P       -10.6687870179       24.2805157726        5.9994214322
 Ca        -3.5685587510       22.3129922223        5.9231209428
  O         6.3732554467       18.7896365652        6.0519704055
  O       -11.1397585559       20.9680744593        5.8877761739
  P       -10.9966201509       19.4399825239        6.0134182365
 Ca        -8.1371097981       18.5650228914        5.9458689604
 Ca        -9.4186238288       21.7587615246        1.0937740275
 Ca        -4.6894878187       19.0355188384        3.9755093668
 Ca        -4.6988563723       19.0670005209        7.4663618465
 Ca        -9.3984420171       21.8037251605        4.4347949006
  O        -9.5492628723       16.1536679087        9.3507356880
  H        -9.1260271934       16.6923673612        8.6589888025
  O        -9.7048996817       15.8806027861        5.4211733478
  H        -9.2785073444       16.5247583263        4.8411047215
  O        -9.1843489751       16.5369256360        6.7116954554
  H        -9.6484789475       16.0361403149        7.4323279235
  O        -9.4260041262       16.3197097014        2.5476170245
  H        -9.4999867700       16.2218493670        3.5212561692
  O         1.8465767713       18.3664546135        1.1702364210
  O         6.7294989807       16.9028905530        1.2066962131
  O         5.5575023486       21.8609528302        1.2126456776
  O         2.5688243188       22.2332497842        4.5936020942
  O        -2.0313976775       23.8831542897        4.7583380807
  O        -0.8420866781       19.2187248927        4.6393217869
  O         2.9205203247       22.5221657146        7.1105358724
  O        -1.8405579930       23.7835458555        7.3194981388
  O        -0.8126931620       18.8776102399        7.1277175275
  O         1.9617268684       18.3668706454        3.6864492593
  O         6.6136170244       16.9994289374        3.7119297078
  O         5.5318292374       21.6683308664        3.7147555012
  O         0.6163040765       20.1902440218        2.4434515006
  O         3.1634705821       20.2059624001        2.4860940794
  P         1.9324079687       19.2780848635        2.4024984454
 Ca        -2.4048883047       24.5058307172        2.3678911645
  O         5.7472181307       14.9221050513        2.4394073437
  O         4.4547368335       17.1137544364        2.4807565161
  P         5.8787679125       16.5133071105        2.4165251443
 Ca        -1.1847150715       18.3198519589        2.4727491021
  O       -11.0864059730       22.0065597090        2.4377800947
  O         6.5262066064       19.7752288402        2.4588425220
  P         6.3249099324       21.3079994266        2.4118119715
 Ca         3.5691800224       22.4580034427        2.4840452650
  O         4.1051263806       20.5926407714        6.0167011966
  O         1.5387874948       20.6047505222        6.0415996446
  P         2.7873104904       21.5162294316        5.9725744583
 Ca         6.8908876642       16.3718135889        5.9528357548
  O        -1.0788922273       25.9085957862        6.0655941187
  O         0.2011400684       23.6894748989        5.9091511495
  P        -1.1992198369       24.3211312365        6.0184385558
 Ca         5.9554851257       22.3179912201        5.9443713419
  O        -3.0761627826       18.8012276514        6.0045182516
  O        -1.8078375438       21.0086047425        5.9921096939
  P        -1.6181018977       19.4755140774        5.9836519077
 Ca         1.1557716274       18.4960670940        5.8869322387
 Ca         0.0071362864       21.7605292511        1.1026571431
 Ca         4.7200242677       19.0638214421        3.9775074064
 Ca         4.6988957181       19.0678178304        7.4604325815
 Ca         0.0249428445       21.6916818788        4.4492386402
  O        -0.1929898147       16.3258101239        9.4535936821
  H         0.4512840218       16.2991094077        8.7101415926
  O        -0.3250092616       16.3304289596        5.3470848033
  H         0.4983817723       16.3496090944        4.8377044658
  O         0.7164542256       16.3100274062        6.7785340965
  H        -0.1039927440       16.3669101569        7.3419376495
  O        -0.0014586276       16.3249455581        2.5483343307
  H        -0.1827239932       16.3182328908        3.5179372657
  O       -12.3032688704       26.5260161624        1.1844886874
  O        -7.4045427151       25.0618924290        1.2136186789
  O        -8.5775510968       30.0016080625        1.1791690959
  O       -11.4057475060       30.5643187073        4.6948737704
  O       -15.9371464181       31.9416196815        4.6599188839
  O       -14.9346668434       27.0929475787        4.7550421114
  O       -11.4117031049       30.5394419351        7.2427583207
  O       -16.1932982581       32.0002655148        7.1403444682
  O       -14.9198975733       27.2627626977        7.3044125857
  O       -12.1773473688       26.5290113245        3.6979175378
  O        -7.5658360337       25.1776002159        3.7204122344
  O        -8.6316837283       29.8796659349        3.6899260044
  O       -13.5404284760       28.3509934670        2.4502961794
  O       -10.9885587396       28.3700552056        2.5054113867
  P       -12.2180947708       27.4395871177        2.4129713959
 Ca       -16.5468353828       32.6408517925        2.4437312444
  O        -8.3875959452       23.0870108158        2.4364529569
  O        -9.6999291245       25.2757402767        2.4577360465
  P        -8.2755709073       24.6830411620        2.4096311577
 Ca       -15.2970536298       26.4541049803        2.3939429562
  O        -6.3823578710       30.1766829771        2.4458731928
  O        -7.6209866644       27.9489523160        2.4709885678
  P        -7.8204568088       29.4836219509        2.4084008653
 Ca       -10.5425551273       30.6092435279        2.3988728662
  O       -10.0842412876       28.7532894764        6.0068230504
  O       -12.6425921427       28.8029955785        5.9329192771
  P       -11.3715711850       29.6781158362        5.9897784765
 Ca        -7.2280839631       24.5290782450        5.9491569370
  O         3.6480283785        1.4096682094        6.0510184633
  O       -13.8411043603       31.9148394879        5.9859867631
  P       -15.2886023687       32.4429878861        5.9977582113
 Ca        -8.2517045706       30.7584484343        5.9061374893
  O         1.6735689300       26.9243485950        6.0721554611
  O       -15.8625114545       29.1147162794        5.9049546949
  P       -15.7177134240       27.5864443862        6.0138966819
 Ca       -12.7971257672       26.6284457352        5.9549525766
 Ca       -14.1279334909       29.9266847327        1.0915560117
 Ca        -9.3696992832       27.2207192689        3.9808198225
 Ca        -9.3786931424       27.2397411409        7.4537680379
 Ca       -14.1149271378       30.0250824925        4.4348916850
  O         4.7433004201       24.3125761704        9.4797743674
  H         4.6676915280       24.9406105679        8.7118147042
  O         4.5158638280       23.9998183063        5.2650309282
  H         4.8376460448       24.8143795006        4.8384930232
  O         4.4650903815       25.0747981678        6.8155485708
  H         4.7667696958       24.3181533201        7.3801701437
  O         4.7157945170       24.4791349275        2.5324141902
  H         4.6936727300       24.3314469344        3.5095581949
  O        -2.8565991387       26.5265496421        1.1713653974
  O         2.0108685180       25.0658348110        1.1832335141
  O         0.8492077871       30.0199741021        1.2133563423
  O        -2.1382790389       30.3782470317        4.6191115757
  O        -6.4336577309       31.9388337594        4.6691209481
  O        -5.5664077495       27.4021892831        4.6495436471
  O        -1.7915025114       30.6613221765        7.1221344356
  O        -6.6825312400       32.0484786678        7.1853137889
  O        -5.5403471201       27.0606919858        7.1237393633
  O        -2.7454525749       26.5252212544        3.6836331828
  O         1.9480154791       25.1606726909        3.6886134486
  O         0.8349044014       29.8042333591        3.7179786499
  O        -4.0922720920       28.3482395239        2.4399185812
  O        -1.5457196050       28.3717863535        2.4851362288
  P        -2.7791925814       27.4440234590        2.4001437490
 Ca        -7.1236956396       32.6560060388        2.5139818071
  O         1.0424360329       23.0822404292        2.4369624704
  O        -0.2479201259       25.2740660275        2.4930252578
  P         1.1776682972       24.6770271400        2.4095921298
 Ca        -5.8851517386       26.4788758850        2.4878478382
  O       -15.7928188545       30.1681428060        2.4383982441
  O         1.8227093564       27.9265298643        2.4552860946
  P         1.6174812668       29.4586292020        2.4066920782
 Ca        -1.1434585022       30.6395838094        2.5152274330
  O        -0.5974716503       28.7547828572        6.0320955915
  O        -3.1677749783       28.7393197978        6.0277578128
  P        -1.9266782589       29.6548325525        5.9876666820
 Ca         2.2871423334       24.4498989289        5.8993167269
  O        13.0959802486        1.4084857382        6.0129793880
  O        -4.3874294950       31.8678129355        5.9832791203
  P        -5.8086756625       32.4493913336        6.0029595783
 Ca         1.2329101147       30.5233922254        5.9214966066
  O        -7.7835278781       26.9448791236        6.0072129817
  O        -6.5924096212       29.1889926798        5.9927858759
  P        -6.3502260860       27.6703821037        5.9855770703
 Ca        -3.6010460302       26.6265519307        5.8724553034
 Ca        -4.7149168225       29.9295172673        1.1139348490
 Ca        -0.0135048997       27.2231189059        3.9734065880
 Ca        -0.0228121318       27.2177720778        7.4571244374
 Ca        -4.7326660441       29.9166315401        4.4831442880
  O        -4.8652466820       24.4829305668        9.5446654397
  H        -4.2975941347       24.4756586841        8.7249800011
  O        -5.0136209631       24.5164209114        5.2868810099
  H        -4.1930133713       24.4557112607        4.7774534961
  O        -3.9717345750       24.4716067940        6.8361932258
  H        -4.8156923448       24.5141694381        7.3618304265
  O        -4.7095124548       24.4817394923        2.5267250959
  H        -4.8932541491       24.4990883900        3.5004654461
  O         0.4364083325       15.1753444491       16.0684478176
  C         0.1089795361       16.3076828595       16.0631543888
  O        -0.2326227785       17.4441312208       16.0686868995
     387
 i =       22, E =     -6920.1861747917
  O         1.8415377428        2.0429038950        1.1884225180
  O         6.7096391672        0.5935509302        1.1902593450
  O         5.5459448202        5.5279963655        1.2053346785
  O         2.7253696708        6.0836606214        4.6865107286
  O        -1.7669390714        7.4406015914        4.5945145164
  O        -0.8026818640        2.6276682632        4.7625127240
  O         2.8660274847        6.1529762006        7.1981149176
  O        -2.1828432892        7.5587877326        7.0924308333
  O        -0.8126423568        2.8281525686        7.3022992913
  O         1.9710764627        2.0391173089        3.7089053949
  O         6.6756184953        0.6745705200        3.7132888099
  O         5.5124923663        5.3674264225        3.7137294407
  O         0.5807380259        3.8503401266        2.4537113380
  O         3.1539212312        3.8725640790        2.4940606230
  P         1.9168413039        2.9489700382        2.4279400863
 Ca        -2.3845000629        8.1952210997        2.4635836995
  O       -13.0576306159       31.2285910488        2.4515269668
  O         4.4883437412        0.8036757997        2.4823417161
  P         5.9143123710        0.1855199585        2.4319934683
 Ca        -1.1845082746        1.9522998469        2.4077819162
  O         7.7506339700        5.7077957614        2.4416884480
  O         6.5047764661        3.4643878895        2.4423365071
  P         6.3210737728        4.9901608593        2.4177551870
 Ca         3.5943721786        6.1374365567        2.4557503757
  O         4.1014273529        4.2894804718        6.0195170231
  O         1.5396745118        4.3032034600        5.9761640026
  P         2.7879549055        5.1979901205        5.9881629834
 Ca         7.1669501071       -0.0164804163        5.9993917727
  O        -1.0696107450        9.5461833866        6.0410088787
  O         0.1845578703        7.3200273905        6.0714403246
  P        -1.2106395609        7.9516902485        5.9632783608
 Ca         5.8870879950        6.0305470127        5.9061905786
  O        15.8185078901        2.4413260222        6.0658242265
  O        -1.7311702109        4.6666561170        5.9084333734
  P        -1.5945437283        3.1214706355        6.0120592737
 Ca         1.2661669092        2.0800625267        5.9499983638
 Ca        -0.0000925015        5.4393239841        1.0537806037
 Ca         4.7326209965        2.7069257815        3.9613824586
 Ca         4.7241348322        2.6907125339        7.4721015716
 Ca         0.0232562591        5.4768085866        4.4560834628
  O         0.0678484854       -0.1229781186        9.6673758176
  H        -0.1096247822        0.3932707612        8.8705936030
  O        -0.1665445899       -0.5036881895        5.0674750387
  H         0.0782058947        0.4728098878        4.7385946906
  O        -0.2232159869        0.5780247071        6.9103811884
  H         0.0967033916       -0.1821755053        7.5007407969
  O         0.0099649316        0.0006490982        2.3872865826
  H        -0.0062301390       -0.1794187615        3.3656588737
  O        11.2913165397        2.0560460577        1.1948365957
  O        16.1421980945        0.5954406074        1.1735196339
  O        14.9767854250        5.5395441450        1.2072670892
  O        12.1758062986        6.0869732759        4.7079364598
  O         7.6541977707        7.4467442209        4.5954983184
  O         8.5869384127        2.8044427303        4.6758974721
  O        12.2102636707        6.1339150643        7.2054242741
  O         7.2372784726        7.5666036183        7.0942612427
  O         8.6174515485        2.5636210783        7.1671918295
  O        11.4588118508        2.1086069202        3.7076178975
  O        16.0822932020        0.6912050709        3.6931339890
  O        14.9411606862        5.3820014450        3.7188182054
  O        10.0229287825        3.8650832496        2.4441225272
  O        12.6005156827        3.9235675815        2.4346042626
  P        11.3674454933        2.9697252858        2.4122949500
 Ca         7.0328790253        8.1969783066        2.4788978627
  O        -3.6287966467       31.2390440442        2.4405024519
  O        13.9025102167        0.7990605357        2.4562843268
  P        15.3202862175        0.1906286888        2.4141846450
 Ca         8.2677784007        1.9716098996        2.4501158651
  O        -1.6647959655        5.7093991833        2.4394130545
  O        15.9255667337        3.4682700411        2.4524007295
  P        15.7434120454        4.9925307142        2.4212760457
 Ca        13.0076094596        6.1517788234        2.4539981238
  O        13.5498313015        4.3075995362        6.0551715369
  O        11.0034373886        4.2262462043        5.9260804280
  P        12.1996119402        5.1733571149        6.0003208684
 Ca        16.5595372191       -0.0572801394        5.8687652588
  O         8.3693273169        9.5426622641        6.0472576235
  O         9.6100772830        7.2920719362        6.0713858557
  P         8.2062178559        7.9398910769        5.9666380357
 Ca        15.3223373758        5.9873081078        5.9197125532
  O         6.3829952229        2.4685625075        6.0172636822
  O         7.6676262449        4.6873408366        6.0096774955
  P         7.8291087550        3.1390779267        5.9841292597
 Ca        10.5714169713        1.9400101448        5.8835757615
 Ca         9.4235143842        5.4410306012        1.0542917704
 Ca        14.1083877335        2.6899979327        3.9582883183
 Ca        14.0992359346        2.6815871892        7.4720888730
 Ca         9.4158705753        5.4073298862        4.4744435637
  O         9.4117104635        0.1248174197        9.8704316165
  H         9.4416662864       -0.4349623555        9.1054475650
  O         9.7947513577        0.0740183324        4.7700385824
  H         8.9114996083       -0.1287535489        4.4901562317
  O         9.1740494411       -0.2241218444        7.1600621614
  H         9.2843881792        0.5019121180        7.8384942782
  O         9.3864664410       -0.0046101656        2.1371630824
  H         9.6271941380        0.0967514701        3.1352225319
  O        -2.8669679929       10.2031616162        1.1998445062
  O         2.0251839935        8.7384493848        1.1863645923
  O         0.8525792046       13.7196002072        1.1907793930
  O        -2.0735573538       14.1601503974        4.6195547357
  O        -6.7278344046       15.7190661459        4.7123738910
  O        -5.5456027823       10.8292325657        4.7261167978
  O        -1.8195823213       14.3956427790        7.1225632630
  O        -6.7057712198       15.6585466412        7.2311788789
  O        -5.5338257828       10.9219471758        7.2730361195
  O        -2.6981285962       10.2517286921        3.7197547899
  O         1.9599435575        8.8415284709        3.7137829164
  O         0.7793245506       13.5878183036        3.7046525949
  O        -4.1206191628       12.0162764771        2.4552322988
  O        -1.5430797664       12.0540758266        2.4372043982
  P        -2.7786368623       11.1303276938        2.4215826676
 Ca        -7.1205276960       16.3331322725        2.4356050112
  O         1.0879450429        6.7479529181        2.4476650648
  O        -0.2154681308        8.9688295673        2.4794966944
  P         1.2023299206        8.3452098894        2.4232313999
 Ca        -5.8760487287       10.1422913111        2.4346232520
  O         3.0454733593       13.8958075277        2.4544378612
  O         1.7836739290       11.6500215442        2.4778026790
  P         1.6009957249       13.1816018422        2.4269578373
 Ca        -1.1448999059       14.3144868758        2.4674974953
  O        -0.6041641874       12.4767735325        6.0440567376
  O        -3.1731242760       12.4536922391        6.0189287019
  P        -1.9370354829       13.3774338008        5.9673565907
 Ca         2.2743361796        8.1163026372        5.9605314544
  O        -5.7825528469       17.7146950681        6.0726630025
  O        -4.5247568341       15.4668564915        5.9075791350
  P        -5.9213904140       16.1211323836        6.0032197244
 Ca         1.1486443112       14.2042660024        5.9237582968
  O        11.0967718216       10.5949628313        6.0675363757
  O        -6.4585910307       12.8230217736        5.9013336430
  P        -6.3183303664       11.2935529155        6.0066500289
 Ca        -3.5425217449       10.2374940198        5.9707005785
 Ca        -4.7101708620       13.6005650877        1.0486892398
 Ca        -0.0300032949       10.8856715040        3.9499689896
 Ca        -0.0237941607       10.8817517496        7.4831866534
 Ca        -4.6614066732       13.5872669697        4.4632497777
  O        14.2930513498        8.0725158514        9.4891155454
  H        13.7271507324        8.3707673267        8.7747542507
  O        14.6745446778        8.0397072915        5.2851117918
  H        13.7836202028        8.1873696689        4.8215208306
  O        13.8368945290        8.5401446803        6.8063775370
  H        14.3913989876        8.0185612442        7.4560691853
  O        14.1398995329        8.1652784528        2.4468032323
  H        14.2753475890        8.1334084409        3.4068774608
  O         6.5519178665       10.2061843612        1.1988703873
  O        11.4557289071        8.7325452580        1.1847740075
  O        10.2714996838       13.7091666430        1.2125428888
  O         7.3160720786       14.1129072802        4.5966590092
  O         2.6413689289       15.7221152692        4.7612120692
  O         3.8734494882       10.8504824405        4.7377213428
  O         7.6125139755       14.4163021658        7.0888289214
  O         2.8185519281       15.6397964833        7.3019369043
  O         3.8704238526       10.9752455850        7.2924156538
  O         6.7280112443       10.2566116802        3.7170759293
  O        11.3861723699        8.8392439463        3.7142936824
  O        10.2253427614       13.5367384651        3.7265864688
  O         5.2988485768       12.0153224090        2.4548092992
  O         7.8819736607       12.0538270172        2.4318969219
  P         6.6415364718       11.1257709458        2.4196247222
 Ca         2.2963784373       16.3469671218        2.3996787455
  O        10.5155109424        6.7493232653        2.4483193740
  O         9.2108459300        8.9684556131        2.4757180288
  P        10.6199851594        8.3395817729        2.4207352955
 Ca         3.5474568827       10.1411719556        2.4295860969
  O        -6.3782098129       13.8801746021        2.4550316190
  O        11.2198621814       11.6307932711        2.4445240846
  P        11.0329262777       13.1633597530        2.4299325864
 Ca         8.2872866753       14.2906951777        2.4591986714
  O         8.8191820956       12.4791740496        6.0452875066
  O         6.2593801764       12.4539799050        6.0627579745
  P         7.4876387123       13.3634341955        5.9617961541
 Ca        11.6513564881        8.1056676325        5.9486966796
  O         3.6185507025       17.7316380600        6.0723680925
  O         4.8803948751       15.5011710310        5.8912046077
  P         3.4715298717       16.1444786625        6.0291889837
 Ca        10.6720086184       14.2254491842        5.9877231008
  O         1.6655469248       10.5945675266        6.0658842701
  O         2.9346453403       12.8500400006        5.9066534286
  P         3.0939772062       11.3176781034        6.0143813546
 Ca         5.8901608339       10.2013532061        5.9570483203
 Ca         4.7162041085       13.6030731305        1.0464726577
 Ca         9.4050803437       10.9061593301        3.9531591861
 Ca         9.3977753599       10.8904102351        7.4792217894
 Ca         4.7775144373       13.5635684460        4.4622208547
  O         4.8237384580        8.0617830341        9.5700335991
  H         4.3612546688        8.4262086508        8.7938493144
  O         5.2478267107        8.0425359682        5.2017038298
  H         4.3257402532        8.2149206567        4.8007697423
  O         4.3755638508        8.6461120571        6.8829507845
  H         4.8831405318        7.9908857398        7.4510646463
  O         4.7112422617        8.1610715051        2.4309510175
  H         4.8608579284        8.1234174060        3.3971174683
  O        -7.5933079515       18.3610373272        1.1828027940
  O        -2.6906753046       16.9139486844        1.2232904523
  O        -3.8631941775       21.8716169283        1.1855639359
  O        -6.7548407228       22.3472878989        4.6239401767
  O       -11.3566078721       23.8191244688        4.6759222277
  O       -10.2240397370       18.9486735821        4.7207218898
  O        -6.5000086916       22.5833371454        7.1219713973
  O       -11.5614793708       23.8759364472        7.1591846202
  O       -10.2054662576       18.9991250532        7.2302065775
  O        -7.4550656790       18.3652947210        3.7119755694
  O        -2.8296880010       17.0226393455        3.7315802813
  O        -3.9311714737       21.7455111343        3.7048671074
  O        -8.8367777287       20.1656475306        2.4505017626
  O        -6.2651002044       20.1873737623        2.4773045490
  P        -7.5058243095       19.2734096069        2.4164699157
 Ca       -11.8352453425       24.4937641537        2.4465738421
  O        -3.6529461317       14.9219427746        2.4457725596
  O        -4.9664629656       17.1225994457        2.4431300879
  P        -3.5442557343       16.5173683559        2.4294419630
 Ca       -10.6001248453       18.3060582381        2.4468129457
  O        -1.6714873212       22.0562677419        2.4558763285
  O        -2.9340724851       19.8113130271        2.4629418420
  P        -3.1113890551       21.3518965099        2.4205994496
 Ca        -5.8550342461       22.4733769682        2.4694771402
  O        -5.3577627832       20.6276482419        6.0395918766
  O        -7.9221730868       20.6819572044        6.0389332149
  P        -6.6554316296       21.5718623118        5.9653777926
 Ca        -2.4736681697       16.3296783135        5.9436580550
  O       -10.5008485804       25.8735166836        6.0651540091
  O        -9.2401719349       23.6454870440        5.9967370854
  P       -10.6555757877       24.2854608452        5.9943558680
 Ca        -3.5683220053       22.3862843770        5.9210519706
  O         6.3961030617       18.7689836153        6.0648871525
  O       -11.1474780962       20.9713390104        5.8939202991
  P       -10.9985513626       19.4479665039        5.9993264066
 Ca        -8.1770299228       18.5305809714        5.9314474797
 Ca        -9.4195898032       21.7605173580        1.0511461624
 Ca        -4.6936854589       19.0362030879        3.9457297052
 Ca        -4.6978694180       19.0660370770        7.4844257203
 Ca        -9.4014216870       21.8066230973        4.4607477195
  O        -9.5556935250       16.1429956507        9.3923413165
  H        -9.1142911807       16.7103213687        8.7847724456
  O        -9.7341796271       15.8441050670        5.3325982146
  H        -9.2556688464       16.5563265110        4.8150386733
  O        -9.1991091426       16.5222250536        6.7858360445
  H        -9.6340094156       16.0557059214        7.4845517191
  O        -9.4241575992       16.3200890222        2.4536569723
  H        -9.5010266329       16.2197352182        3.4142318369
  O         1.8480721093       18.3638849766        1.1686487092
  O         6.7340995777       16.9072723298        1.2072578854
  O         5.5522577119       21.8589039787        1.2146882188
  O         2.5909933968       22.2611452257        4.5998264729
  O        -2.0457790194       23.8760376274        4.7645690445
  O        -0.8312653127       19.1888102900        4.6458959621
  O         2.9202806228       22.5223044018        7.1123712666
  O        -1.8516982505       23.7918695207        7.3099671296
  O        -0.8101180598       18.8719887762        7.1282104034
  O         1.9719735177       18.3637730142        3.7000875871
  O         6.6194950280       17.0110744279        3.7199179738
  O         5.5168320836       21.6766077602        3.7169923037
  O         0.5981613332       20.1678523471        2.4450069251
  O         3.1692990159       20.1846171051        2.4612883517
  P         1.9256314784       19.2730339620        2.4117614824
 Ca        -2.4107621168       24.5214262495        2.3974121853
  O         5.7738951053       14.9131767384        2.4421009017
  O         4.4686633210       17.1229526056        2.4587732968
  P         5.8821070370       16.5141467673        2.4240352198
 Ca        -1.1886659361       18.3132297098        2.4825155605
  O       -11.0938979944       22.0300473270        2.4444352316
  O         6.5134889811       19.7819979981        2.4396687201
  P         6.3196848650       21.3223106822        2.4203319477
 Ca         3.5790847617       22.4605345493        2.4940160623
  O         4.1158239317       20.6172465397        6.0048252082
  O         1.5332346805       20.6063839217        6.0703840309
  P         2.7732722766       21.5165668860        5.9606758294
 Ca         6.9465326530       16.3517739823        5.9288526629
  O        -1.0970898522       25.8976876287        6.0663192289
  O         0.2014128327       23.6798887215        5.8986113132
  P        -1.2046881510       24.3092819178        6.0249841227
 Ca         5.9328655940       22.3765066945        5.9231949140
  O        -3.0618117098       18.7784446652        5.9965652557
  O        -1.8010497454       21.0082024925        6.0127461390
  P        -1.6152931835       19.4881029728        5.9662049492
 Ca         1.1311135223       18.4436898913        5.8809299683
 Ca         0.0072225670       21.7644437593        1.0603437887
 Ca         4.7193754840       19.0636032332        3.9493937578
 Ca         4.6951133810       19.0655624090        7.4808329610
 Ca         0.0265540814       21.7046277788        4.4769483846
  O        -0.1890826670       16.3237931332        9.5238203678
  H         0.4442791932       16.3000835515        8.8154307908
  O        -0.3622799848       16.3319705306        5.2649435460
  H         0.5206802843       16.3438575197        4.8155751030
  O         0.7003910927       16.3113375349        6.7856756012
  H        -0.0999652974       16.3660901460        7.4340479776
  O        -0.0053618338       16.3240580915        2.4557713703
  H        -0.1817163963       16.3176007349        3.4193437176
  O       -12.3080154136       26.5242523560        1.1868694859
  O        -7.4010825843       25.0669824058        1.2162406304
  O        -8.5821112066       29.9921360235        1.1750694847
  O       -11.3891324382       30.5794395012        4.7046493515
  O       -15.9557762413       31.9497912497        4.6639531040
  O       -14.9286095264       27.0764510256        4.7592997461
  O       -11.4013818917       30.5581081367        7.2346998038
  O       -16.1989444210       32.0005973477        7.1375738945
  O       -14.9199511365       27.2560251913        7.2956366630
  O       -12.1677842892       26.5220541198        3.7115307512
  O        -7.5470238537       25.1847529260        3.7235831469
  O        -8.6353682792       29.8726147980        3.7006427177
  O       -13.5552736202       28.3304861685        2.4531052222
  O       -10.9864737236       28.3511136211        2.4895288862
  P       -12.2243899900       27.4348929741        2.4265383549
 Ca       -16.5460613698       32.6524489762        2.4561969238
  O        -8.3642218045       23.0807647488        2.4422834093
  O        -9.6830200898       25.2822421596        2.4364211556
  P        -8.2645569076       24.6819171805        2.4200966732
 Ca       -15.3021615814       26.4448611874        2.4215729683
  O        -6.3887466676       30.2017961663        2.4533834619
  O        -7.6370378952       27.9510628999        2.4485467850
  P        -7.8306586506       29.4981853383        2.4172245634
 Ca       -10.5256464205       30.6245356433        2.4140527203
  O       -10.0680026767       28.7753402350        6.0035261357
  O       -12.6473248180       28.7995217565        5.9307843918
  P       -11.3775078339       29.6807052254        5.9796160811
 Ca        -7.1651821400       24.5112620521        5.9216225374
  O         3.6231056102        1.4103525719        6.0529399397
  O       -13.8525003885       31.9096944979        6.0042850260
  P       -15.2888561865       32.4493757586        5.9854691155
 Ca        -8.2539405517       30.7996726470        5.8905729483
  O         1.6905142029       26.9104124860        6.0766967197
  O       -15.8667301365       29.1267379699        5.9016331987
  P       -15.7087108337       27.5878603694        6.0183373421
 Ca       -12.8562762749       26.5918887469        5.9478444120
 Ca       -14.1279408153       29.9256033357        1.0551303907
 Ca        -9.3760349609       27.2221346895        3.9496734223
 Ca        -9.3861579546       27.2407668396        7.4695406466
 Ca       -14.1182208711       30.0201749083        4.4601893543
  O         4.7452609260       24.3170635020        9.5498805773
  H         4.6625325467       24.9276068927        8.8170614180
  O         4.5386856966       23.9610194825        5.2172602467
  H         4.8330956866       24.8479046721        4.8204401768
  O         4.4883209794       25.0651733465        6.8071114588
  H         4.7535358686       24.3291250445        7.4481767942
  O         4.7165316225       24.4752437680        2.4379822894
  H         4.6900136089       24.3318020959        3.4056329335
  O        -2.8518823159       26.5233437769        1.1684841541
  O         2.0114586601       25.0689388817        1.1794059596
  O         0.8429118200       30.0195475261        1.2156602375
  O        -2.1116694414       30.4104246076        4.6188061090
  O        -6.4546204020       31.9356875200        4.6752217386
  O        -5.5571394476       27.3808223394        4.6559552979
  O        -1.7881765502       30.6644686086        7.1188320987
  O        -6.7023300425       32.0495328637        7.1754808661
  O        -5.5415516970       27.0628823553        7.1255986452
  O        -2.7384208335       26.5262781168        3.6959269556
  O         1.9493366413       25.1688068562        3.6980969942
  O         0.8210831595       29.8129211767        3.7237637501
  O        -4.1126263959       28.3279419278        2.4438711150
  O        -1.5408316440       28.3513164372        2.4607671846
  P        -2.7829730285       27.4366603914        2.4108974507
 Ca        -7.1273052290       32.6674571747        2.5228379581
  O         1.0689302715       23.0734400337        2.4382735060
  O        -0.2347232437       25.2837535221        2.4743599559
  P         1.1847933904       24.6775143799        2.4195341661
 Ca        -5.8927828256       26.4762130964        2.4946856753
  O       -15.8041071493       30.1933008217        2.4432160162
  O         1.8130830953       27.9354373372        2.4352221055
  P         1.6169098237       29.4661497165        2.4171670940
 Ca        -1.1342038557       30.6324546493        2.5220501704
  O        -0.5868362958       28.7815822949        6.0241665704
  O        -3.1746126480       28.7428420775        6.0588275329
  P        -1.9345500637       29.6548533954        5.9732308588
 Ca         2.3367169065       24.4460130810        5.8844701898
  O        13.0741262954        1.4026077264        6.0044262986
  O        -4.4040355984       31.8613988749        6.0140966305
  P        -5.8206863412       32.4534184614        5.9887540233
 Ca         1.2079804199       30.5861648694        5.8915667590
  O        -7.7681926938       26.9213994188        5.9951231936
  O        -6.5850426020       29.1844117892        6.0149358165
  P        -6.3472042060       27.6650783856        5.9731487227
 Ca        -3.6214064449       26.5770498793        5.8651023052
 Ca        -4.7144254888       29.9299925671        1.0649998103
 Ca        -0.0100047476       27.2220822465        3.9459838559
 Ca        -0.0186127121       27.2109524696        7.4798681923
 Ca        -4.7305594998       29.9265394413        4.5027317706
  O        -4.8631539357       24.4818327568        9.6131492948
  H        -4.3070152782       24.4757232628        8.8294981417
  O        -5.0630123653       24.5212603902        5.2373980389
  H        -4.1635054738       24.4502670708        4.7589424946
  O        -4.0033654443       24.4705093580        6.8215009097
  H        -4.8182051955       24.5123900300        7.4445362520
  O        -4.7170692713       24.4804793294        2.4393103593
  H        -4.8934177054       24.4975530025        3.3999243427
  O         0.4302295791       15.1797881123       16.0667430314
  C         0.1065665896       16.2944026831       16.0600846659
  O        -0.2327335440       17.4507889336       16.0648453018
     387
 i =       23, E =     -6920.2920349191
  O         1.8293607137        2.0467216685        1.1917483407
  O         6.7091467704        0.5874641785        1.1904544134
  O         5.5489422858        5.5333228156        1.2093671203
  O         2.7284589681        6.0867055655        4.6884538742
  O        -1.7633628681        7.4393695655        4.5923265747
  O        -0.7983557756        2.6082687752        4.7747645326
  O         2.8818934944        6.1552350200        7.1882819146
  O        -2.1975857482        7.5648117608        7.0771946107
  O        -0.8119966488        2.8345110791        7.3120144486
  O         1.9711547920        2.0398782984        3.7064778781
  O         6.6778958100        0.6751201718        3.7110825253
  O         5.5133827174        5.3619912174        3.7078672373
  O         0.5763050550        3.8448150538        2.4546922409
  O         3.1442620607        3.8784904142        2.4974008769
  P         1.9116329030        2.9453353088        2.4206518519
 Ca        -2.3856491007        8.1969093243        2.4647763894
  O       -13.0510817427       31.2256025416        2.4521821684
  O         4.4898317971        0.7934218770        2.4856834926
  P         5.9171852239        0.1856773125        2.4237697270
 Ca        -1.1848679608        1.9395298940        2.4123867838
  O         7.7497318512        5.7149122816        2.4416140700
  O         6.5132780392        3.4664856334        2.4415466205
  P         6.3191889952        4.9933064931        2.4096296137
 Ca         3.6037745080        6.1374891074        2.4610739929
  O         4.1052900929        4.2893477628        6.0197943680
  O         1.5423935018        4.3015489221        5.9734874815
  P         2.7970439875        5.2079797635        5.9950601663
 Ca         7.1615243844       -0.0191842361        6.0099353091
  O        -1.0773222426        9.5456749366        6.0444724131
  O         0.1827742426        7.3230564441        6.0820802925
  P        -1.2215542352        7.9527402410        5.9644883316
 Ca         5.8896176848        6.0276360196        5.8920126275
  O        15.8240249106        2.4374746556        6.0767123909
  O        -1.7347066957        4.6600012606        5.8859107832
  P        -1.5941387201        3.1208111554        6.0169734058
 Ca         1.2644286577        2.0843655599        5.9544807354
 Ca         0.0003823905        5.4361671368        1.0668256029
 Ca         4.7375786755        2.7043076364        3.9454988919
 Ca         4.7295506196        2.6884143755        7.4553690872
 Ca         0.0237429869        5.4789735586        4.4635201825
  O         0.0809911367       -0.1413036916        9.6681236095
  H        -0.1239319049        0.4357453416        8.8741302863
  O        -0.1617936616       -0.4763250254        5.0615481046
  H         0.0773403788        0.4697327460        4.7702864955
  O        -0.2290774821        0.5842733815        6.9114427671
  H         0.0959383854       -0.1743318617        7.4948686862
  O         0.0098432475       -0.0044981894        2.4071038661
  H        -0.0087279379       -0.1951010572        3.3723236992
  O        11.2867908960        2.0579378525        1.1960545533
  O        16.1432620962        0.5893106767        1.1720602655
  O        14.9834302046        5.5476311840        1.2127769418
  O        12.1799751988        6.0911652401        4.7115168523
  O         7.6606138186        7.4449221223        4.5926307906
  O         8.5909136248        2.8008812968        4.6714200723
  O        12.2184811868        6.1344756806        7.1988367310
  O         7.2214176915        7.5736831009        7.0807633814
  O         8.6155713301        2.5481712443        7.1573940709
  O        11.4672239888        2.1127780956        3.7031592193
  O        16.0799551119        0.6917471962        3.6855041166
  O        14.9440700903        5.3776935166        3.7141731758
  O        10.0189676240        3.8619336846        2.4455692253
  O        12.5887467571        3.9323394413        2.4335806217
  P        11.3691856715        2.9755509448        2.4029579178
 Ca         7.0311031802        8.1984719482        2.4832553026
  O        -3.6209723412       31.2381983286        2.4405265111
  O        13.9023893422        0.7912789443        2.4557348576
  P        15.3240973928        0.1896474494        2.4023103091
 Ca         8.2712246954        1.9607878745        2.4505575770
  O        -1.6655869517        5.7164663741        2.4390897758
  O        15.9354350201        3.4698065219        2.4524833095
  P        15.7422963377        4.9982471335        2.4132642165
 Ca        13.0122695099        6.1515285851        2.4601607457
  O        13.5564821774        4.3100479132        6.0647284807
  O        11.0111727634        4.2147983420        5.9117642015
  P        12.2070507929        5.1821087261        6.0055452347
 Ca        16.5585265556       -0.0595131319        5.8588422100
  O         8.3667596338        9.5399770728        6.0516084069
  O         9.6065229093        7.2927995423        6.0827034366
  P         8.2015973980        7.9386190681        5.9651174547
 Ca        15.3271007488        5.9743622103        5.9078520404
  O         6.3775060620        2.4628277098        6.0171546297
  O         7.6618189589        4.6794655379        6.0090246908
  P         7.8329991241        3.1392102069        5.9905188975
 Ca        10.5650507473        1.9315622909        5.8672168374
 Ca         9.4247037728        5.4381482205        1.0668160350
 Ca        14.1035795386        2.6847903586        3.9425292203
 Ca        14.0969236142        2.6736113335        7.4570706636
 Ca         9.4126627404        5.4007951468        4.4837317987
  O         9.4172375776        0.1549729689        9.9011970891
  H         9.4396719646       -0.4961999999        9.1166871198
  O         9.8188066505        0.0692936870        4.7512063650
  H         8.8529663117       -0.1400393676        4.5235368950
  O         9.1522451825       -0.2192773329        7.1586974244
  H         9.2741169896        0.5387916855        7.8412765401
  O         9.3920302381       -0.0009409599        2.1423440557
  H         9.6402338426        0.1015744203        3.1201197840
  O        -2.8781009322       10.2046652240        1.2046226021
  O         2.0293448628        8.7279258149        1.1887501189
  O         0.8629785225       13.7306033279        1.1951591649
  O        -2.0750721564       14.1559671286        4.6165902255
  O        -6.7411853762       15.7259082017        4.7215099364
  O        -5.5416757384       10.8100566046        4.7380341387
  O        -1.8049917287       14.4021835497        7.1101557163
  O        -6.7066589819       15.6599497665        7.2251393692
  O        -5.5377981933       10.9242006368        7.2826125640
  O        -2.6943044296       10.2563516449        3.7184811159
  O         1.9561172419        8.8413845679        3.7101060710
  O         0.7782792978       13.5856587105        3.6996545810
  O        -4.1251622915       12.0120054298        2.4565884403
  O        -1.5506762138       12.0591721603        2.4350434863
  P        -2.7834198460       11.1283612767        2.4140202889
 Ca        -7.1279492764       16.3364429556        2.4418175458
  O         1.0947948841        6.7476390257        2.4476271943
  O        -0.2148994598        8.9603667807        2.4774662411
  P         1.2075452367        8.3432221543        2.4174686624
 Ca        -5.8776658434       10.1327263583        2.4404876106
  O         3.0420313537       13.9024157782        2.4550358800
  O         1.7928634830       11.6541479167        2.4769830428
  P         1.6013367218       13.1912550530        2.4189553134
 Ca        -1.1389167778       14.3178387329        2.4688355252
  O        -0.6027157035       12.4796274679        6.0462983720
  O        -3.1675814002       12.4521795696        6.0214863458
  P        -1.9329564122       13.3869588491        5.9685219463
 Ca         2.2786389800        8.1124219374        5.9652964405
  O        -5.7857465325       17.7166160241        6.0812287692
  O        -4.5230608062       15.4730073606        5.8896193053
  P        -5.9345722043       16.1190936037        6.0081884279
 Ca         1.1509453672       14.2076197376        5.9230873494
  O        11.0984529767       10.5901758586        6.0755891916
  O        -6.4614644441       12.8160743120        5.8848619341
  P        -6.3185930822       11.2885040286        6.0074859755
 Ca        -3.5429879535       10.2390351499        5.9685729953
 Ca        -4.7111362846       13.6010756177        1.0616885832
 Ca        -0.0309254467       10.8848353581        3.9350719292
 Ca        -0.0254801977       10.8792844619        7.4681827940
 Ca        -4.6563007766       13.5860598618        4.4691930054
  O        14.3194956744        8.0556149149        9.4724194706
  H        13.6806522942        8.3995118291        8.7684785628
  O        14.6589350774        8.0355282168        5.2919519684
  H        13.7855744300        8.1814615806        4.8429641166
  O        13.8373547143        8.5667063376        6.8086299158
  H        14.4049418312        8.0140219333        7.4581187364
  O        14.1428824535        8.1662057246        2.4708449540
  H        14.2874957846        8.1320008941        3.4219059980
  O         6.5385378729       10.2065131884        1.2009100565
  O        11.4611140682        8.7197186299        1.1889765009
  O        10.2787606747       13.7194867544        1.2182802483
  O         7.3116669164       14.1073333591        4.5933025148
  O         2.6179731927       15.7314503794        4.7738994091
  O         3.8729332582       10.8381601601        4.7515170332
  O         7.6249340326       14.4225037716        7.0728849104
  O         2.8226526602       15.6383807854        7.3193315254
  O         3.8635859821       10.9829461725        7.3015928806
  O         6.7318661493       10.2619599727        3.7147573002
  O        11.3825888712        8.8393760032        3.7104889476
  O        10.2268006714       13.5315123865        3.7243291758
  O         5.2944889577       12.0107910386        2.4554516128
  O         7.8726987275       12.0564900593        2.4279775814
  P         6.6388899053       11.1264995845        2.4133323610
 Ca         2.2870038590       16.3502242131        2.4068858118
  O        10.5228530634        6.7486314604        2.4490995860
  O         9.2109214790        8.9612646397        2.4730006764
  P        10.6273894415        8.3379154293        2.4149808382
 Ca         3.5480094213       10.1318763947        2.4375261583
  O        -6.3777043746       13.8867800152        2.4565664840
  O        11.2303125013       11.6351895699        2.4447707163
  P        11.0329497610       13.1689830617        2.4257499048
 Ca         8.2915156963       14.2918475525        2.4619970739
  O         8.8257624059       12.4822547358        6.0477787925
  O         6.2614842915       12.4479420412        6.0737071187
  P         7.4942505931       13.3786885379        5.9632058906
 Ca        11.6491811859        8.0932688048        5.9514092381
  O         3.6109051915       17.7316500779        6.0809688307
  O         4.8689503939       15.5080712056        5.8738806716
  P         3.4726528701       16.1466969386        6.0231333311
 Ca        10.6722975877       14.2286602479        5.9861297955
  O         1.6642864349       10.5901388079        6.0741606486
  O         2.9266867356       12.8469483802        5.8865327934
  P         3.0948089991       11.3161675903        6.0189130059
 Ca         5.8863857403       10.1993421943        5.9561600327
 Ca         4.7151034400       13.6034011467        1.0600103934
 Ca         9.4035714539       10.9067403693        3.9380600820
 Ca         9.3913501409       10.8884018827        7.4638316210
 Ca         4.7844649662       13.5608868611        4.4720578461
  O         4.8359044152        8.0483388719        9.5599484065
  H         4.3338684400        8.4561178037        8.7950334816
  O         5.2316265683        8.0397772089        5.1933292117
  H         4.3279274475        8.2121336779        4.8271415584
  O         4.3650438418        8.6669053880        6.8918898522
  H         4.8843479992        7.9908906115        7.4489996190
  O         4.7137628525        8.1614692834        2.4550741870
  H         4.8749584766        8.1207719066        3.4099210238
  O        -7.6078856915       18.3631288669        1.1854510778
  O        -2.6864684515       16.9087063809        1.2267729402
  O        -3.8545762744       21.8821560264        1.1874688853
  O        -6.7560814724       22.3467068590        4.6199377760
  O       -11.3636087888       23.8229119680        4.6775893113
  O       -10.2218918758       18.9288380540        4.7275608155
  O        -6.4848015770       22.5931714656        7.1065041746
  O       -11.5818107154       23.8838846430        7.1513026622
  O       -10.2070197222       18.9915548300        7.2228371761
  O        -7.4527812194       18.3691802660        3.7067012085
  O        -2.8329531439       17.0239642742        3.7290221306
  O        -3.9309038506       21.7423429468        3.6998946277
  O        -8.8417404529       20.1600625393        2.4514372793
  O        -6.2720548276       20.1926104270        2.4746381785
  P        -7.5115869445       19.2692780991        2.4115543604
 Ca       -11.8420212216       24.4989904525        2.4498418474
  O        -3.6478013443       14.9175228297        2.4468342659
  O        -4.9671671233       17.1131763559        2.4435329360
  P        -3.5439217008       16.5169781677        2.4240613603
 Ca       -10.5996601886       18.2996141678        2.4534208813
  O        -1.6742519007       22.0633213493        2.4570468640
  O        -2.9265425235       19.8178251440        2.4614945896
  P        -3.1122543258       21.3568445784        2.4129653343
 Ca        -5.8507073396       22.4764022878        2.4701386351
  O        -5.3608635212       20.6277469810        6.0435193341
  O        -7.9188193632       20.6880566239        6.0461173531
  P        -6.6515432374       21.5819429514        5.9700934605
 Ca        -2.4652030952       16.3264367805        5.9279139410
  O       -10.5053452859       25.8749322099        6.0719622802
  O        -9.2450759155       23.6530725165        5.9938483477
  P       -10.6612326669       24.2866798544        5.9966659494
 Ca        -3.5665194300       22.3907080704        5.9210244313
  O         6.3965617058       18.7634134268        6.0748904805
  O       -11.1529828480       20.9673227128        5.8776434155
  P       -10.9888565112       19.4346376603        6.0078586625
 Ca        -8.1842545479       18.5284155533        5.9334533349
 Ca        -9.4199355125       21.7608731641        1.0635194276
 Ca        -4.6937978227       19.0346717111        3.9295760575
 Ca        -4.6964502365       19.0680453782        7.4671346645
 Ca        -9.4016124463       21.8130649087        4.4672075499
  O        -9.5850873113       16.0998392522        9.3503474135
  H        -9.0611812594       16.7790631527        8.7864266820
  O        -9.7335187576       15.8498310213        5.3211439108
  H        -9.2565068442       16.5545893695        4.8343376793
  O        -9.1830611172       16.5341659881        6.7904202700
  H        -9.6715463699       16.0128511369        7.5174018267
  O        -9.4251599513       16.3185177536        2.4766344525
  H        -9.5072082924       16.2112103566        3.4291712655
  O         1.8380636410       18.3663003225        1.1689424617
  O         6.7373025570       16.8984528208        1.2120451873
  O         5.5551678887       21.8658791723        1.2165118280
  O         2.5820139212       22.2520787911        4.5968564929
  O        -2.0647592769       23.8825464758        4.7780420626
  O        -0.8335025778       19.1937670918        4.6442711309
  O         2.9375275411       22.5224821499        7.1005402108
  O        -1.8460178881       23.7906980661        7.3229945507
  O        -0.8208269228       18.8577611688        7.1169603242
  O         1.9731493860       18.3675239389        3.6918810657
  O         6.6133163104       17.0120746233        3.7151815043
  O         5.5161395329       21.6709751513        3.7124754832
  O         0.5935691934       20.1611618381        2.4446514383
  O         3.1633334354       20.1884565044        2.4585397694
  P         1.9217266884       19.2679887448        2.4017424338
 Ca        -2.4186366448       24.5273319515        2.4031983931
  O         5.7796449285       14.9101024199        2.4409117073
  O         4.4647532476       17.1148446077        2.4578928330
  P         5.8874767268       16.5115574170        2.4170784064
 Ca        -1.1898230963       18.3092168032        2.4864524497
  O       -11.0931369130       22.0366379113        2.4463462244
  O         6.5242865076       19.7879504206        2.4396276303
  P         6.3217169407       21.3207435177        2.4149556195
 Ca         3.5834141607       22.4618925560        2.4984784229
  O         4.1174329935       20.6188036106        5.9967783121
  O         1.5375939019       20.6018853711        6.0814912172
  P         2.7798049886       21.5193467127        5.9611866273
 Ca         6.9410532580       16.3470076571        5.9175318734
  O        -1.1049871491       25.8966693651        6.0733739301
  O         0.1980059633       23.6861399992        5.8761616747
  P        -1.2068417115       24.3112229215        6.0254065748
 Ca         5.9324369695       22.3783690339        5.9115604262
  O        -3.0633447930       18.7741943940        5.9909337077
  O        -1.8089230375       21.0068348949        6.0137500231
  P        -1.6151153011       19.4757567267        5.9689663570
 Ca         1.1277824130       18.4436645823        5.8749666751
 Ca         0.0079083211       21.7659918538        1.0726812244
 Ca         4.7208738970       19.0659626445        3.9350206982
 Ca         4.6917459855       19.0679059423        7.4651422102
 Ca         0.0306228469       21.7044331364        4.4865219678
  O        -0.2240462923       16.3231887777        9.5104053312
  H         0.4995102409       16.2981640131        8.8093606752
  O        -0.3560617826       16.3333829828        5.2510405521
  H         0.5412771580       16.3417479885        4.8374705246
  O         0.7190798493       16.3125368536        6.8104189223
  H        -0.0805512202       16.3684645665        7.4333563893
  O        -0.0086761339       16.3239042179        2.4830166233
  H        -0.1976091207       16.3169634052        3.4356014597
  O       -12.3242185334       26.5266499677        1.1904939764
  O        -7.3966356131       25.0590444604        1.2209445854
  O        -8.5767766565       29.9930768641        1.1736480043
  O       -11.3814245505       30.5907210699        4.7083695505
  O       -15.9492421885       31.9511279395        4.6618489180
  O       -14.9251053381       27.0525596920        4.7725709057
  O       -11.4020875617       30.5546454019        7.2346613510
  O       -16.2076852620       32.0061294885        7.1292853914
  O       -14.9177010049       27.2587670109        7.3062183779
  O       -12.1672854635       26.5222597095        3.7073523712
  O        -7.5504216451       25.1855181915        3.7198609061
  O        -8.6359871089       29.8660278936        3.6953489332
  O       -13.5612807886       28.3242384955        2.4543386073
  O       -10.9957902973       28.3562163731        2.4902312343
  P       -12.2293627718       27.4308418356        2.4218372872
 Ca       -16.5484080365       32.6541368839        2.4589992573
  O        -8.3595494606       23.0760781574        2.4439872880
  O        -9.6851256107       25.2721471225        2.4354643421
  P        -8.2616325770       24.6820237801        2.4122350457
 Ca       -15.2989518348       26.4362511425        2.4294058726
  O        -6.3915964647       30.2081705792        2.4536514120
  O        -7.6299173160       27.9582229540        2.4484190314
  P        -7.8285112559       29.4957965792        2.4054338646
 Ca       -10.5156531150       30.6316690820        2.4142656522
  O       -10.0692510172       28.7744311264        6.0015557835
  O       -12.6475043942       28.7979510257        5.9126126350
  P       -11.3749896762       29.6819657828        5.9807633277
 Ca        -7.1602408811       24.5130413386        5.9059291130
  O         3.6163435745        1.4146476440        6.0590668679
  O       -13.8500262774       31.9217099627        6.0031737155
  P       -15.2957033928       32.4544119596        5.9883395744
 Ca        -8.2484885338       30.8189911045        5.8846083894
  O         1.6978950160       26.9029293258        6.0861586113
  O       -15.8705502813       29.1156697340        5.8836682480
  P       -15.7082410152       27.5873810370        6.0175576603
 Ca       -12.8589267141       26.5945332511        5.9499273987
 Ca       -14.1269672607       29.9248205136        1.0690342606
 Ca        -9.3731030590       27.2255964865        3.9339008414
 Ca        -9.3835651466       27.2474835383        7.4494383900
 Ca       -14.1176086582       30.0290098153        4.4673490782
  O         4.7524925406       24.2882435735        9.5390619414
  H         4.6525293785       24.9767711367        8.8147687104
  O         4.5459765222       23.9709725067        5.2077730437
  H         4.8343973018       24.8432437101        4.8466248015
  O         4.4725487805       25.0831843979        6.8166229027
  H         4.7493111960       24.3384106594        7.4459808699
  O         4.7160878449       24.4709978963        2.4629538768
  H         4.6863206438       24.3195833893        3.4186162196
  O        -2.8581329101       26.5254517013        1.1681722969
  O         2.0115813941       25.0598084764        1.1797010613
  O         0.8475141240       30.0248208287        1.2212540828
  O        -2.1177037409       30.4001211900        4.6128055651
  O        -6.4417449870       31.9276845701        4.6690151667
  O        -5.5583636852       27.3907204477        4.6525951017
  O        -1.7669584324       30.6668913154        7.1088574819
  O        -6.7084802222       32.0603680756        7.1679693322
  O        -5.5504882448       27.0498609947        7.1217869206
  O        -2.7376007998       26.5290298082        3.6879150060
  O         1.9476719954       25.1679737869        3.6899776222
  O         0.8210444401       29.8038596385        3.7204310330
  O        -4.1160597660       28.3203555416        2.4431273608
  O        -1.5461681565       28.3554215636        2.4584553000
  P        -2.7885517865       27.4342138745        2.4004274166
 Ca        -7.1316269529       32.6705167081        2.5328608979
  O         1.0752475262       23.0713812760        2.4372992615
  O        -0.2366416923       25.2747522290        2.4737322199
  P         1.1900186480       24.6749026880        2.4095667213
 Ca        -5.8947037691       26.4749028872        2.4994908081
  O       -15.8037646644       30.2001116315        2.4444328235
  O         1.8281671764       27.9366611597        2.4335945799
  P         1.6178772704       29.4681241927        2.4094731643
 Ca        -1.1299346877       30.6312374785        2.5289715213
  O        -0.5812972456       28.7798653484        6.0202678733
  O        -3.1682812898       28.7382900279        6.0731573682
  P        -1.9310661331       29.6557220766        5.9737568161
 Ca         2.3335768218       24.4444564597        5.8742442413
  O        13.0738254089        1.4122984539        5.9981448158
  O        -4.3939480528       31.8704857604        6.0194450662
  P        -5.8208589595       32.4526487906        5.9944446398
 Ca         1.2104196675       30.5895079617        5.8758249992
  O        -7.7742500117       26.9137117306        5.9879139121
  O        -6.5998153128       29.1790658013        6.0174987255
  P        -6.3536270927       27.6661880951        5.9725744484
 Ca        -3.6275379406       26.5804275701        5.8566870570
 Ca        -4.7152883597       29.9310603728        1.0774295560
 Ca        -0.0088248625       27.2243504219        3.9323622109
 Ca        -0.0199386784       27.2104010261        7.4649197740
 Ca        -4.7334269644       29.9320250570        4.5145743787
  O        -4.8883751079       24.4813753960        9.6031235559
  H        -4.2617873141       24.4747885502        8.8312241165
  O        -5.0396639491       24.5245362658        5.2286308578
  H        -4.1446657891       24.4479083742        4.7851767122
  O        -3.9904697606       24.4715914920        6.8344509570
  H        -4.8008029032       24.5142395293        7.4401314118
  O        -4.7197094814       24.4800203447        2.4649482591
  H        -4.9116185758       24.4982222337        3.4167510352
  O         0.4313161520       15.1788074588       16.0666083481
  C         0.1042163521       16.2996005899       16.0600738091
  O        -0.2310741660       17.4405246188       16.0637516914
