     387
 i =        1, E =     -6909.8345167191
  O         0.4657222409        2.8027905365        3.3745818410
  O         0.4745729613       36.7599915820        5.1477597304
  O         0.4744583745       27.4974740159        6.9290351997
  O         0.4700157854       18.2411986788        8.6921485345
  O         0.4631935054       16.1231294929        4.1528955496
  O         0.4670804136        6.8814487459        5.9343420510
  O         0.4704859995       40.8004308937        7.6952953178
  O         0.4727885149       31.5407084104        9.4741668246
  O         0.4664285860       30.3964394602        2.8207811882
  O         0.4778233751       21.1415225107        4.6037357846
  O         0.4779711107       11.9020650786        6.3720903134
  O         0.4647943003        2.6245241067        8.1473455402
  O         3.9081294846       18.7603111634        2.9338003360
  O         3.9092974071        9.5278076175        4.7160640163
  O         3.9153997687        0.2552474911        6.4737135716
  O         3.9052916254       34.2120541098        8.2530694927
  O         3.9228669761        5.4568678095        2.1530860570
  O         3.9069238400       39.3991195587        3.9330421141
  O         3.9117532648       30.1303296943        5.7077766200
  O         3.9038706678       20.8902056962        7.4793763990
  O         3.9006591391       34.3963256887        3.4856451652
  O         3.9093576336       25.1303329053        5.2682061597
  O         3.9188508983       15.8603009103        7.0365018948
  O         3.9065018926        6.6203880214        8.8079673289
  O         6.4106455105       18.7607371155        2.9335881669
  O         6.4094890740        9.5279623741        4.7159450618
  O         6.4033263271        0.2554003405        6.4735685022
  O         6.4134731389       34.2122096240        8.2529275792
  O         6.3958809798        5.4569817577        2.1532655225
  O         6.4118351129       39.3991806790        3.9332335477
  O         6.4069897648       30.1303960204        5.7079835525
  O         6.4149477834       20.8902413103        7.4795517004
  O         6.4180716481       34.3961256938        3.4855762538
  O         6.4094027525       25.1301589743        5.2681040233
  O         6.3998778236       15.8600943563        7.0364273395
  O         6.4121312435        6.6201967068        8.8078405904
  O         2.9735044034        2.8029474037        3.3744475367
  O         2.9646872472       36.7601305204        5.1476074910
  O         2.9648050777       27.4976221376        6.9288640325
  O         2.9692544448       18.2413427832        8.6919785623
  O         2.9760478713       16.1231905667        4.1531235201
  O         2.9721764999        6.8814811613        5.9344608255
  O         2.9686524675       40.8005027769        7.6954298019
  O         2.9664414891       31.5407648500        9.4743469299
  O         2.9729384530       30.3961628613        2.8207499812
  O         2.9615100197       21.1413429297        4.6036944507
  O         2.9612322323       11.9018778851        6.3720338999
  O         2.9745064053        2.6243659315        8.1472791862
  O         1.7200270369        0.5872628705        3.6712612857
  O         1.7200306969       34.5636958886        5.4527669620
  O         1.7200244496       25.2877192873        7.2353927399
  O         1.7200575538       16.0094425140        9.0018445136
  O         1.7200197531        2.3957186578        5.5010479508
  O         1.7200108924       36.3460957158        7.2867206056
  O         1.7200128394       27.0897954326        9.0613828537
  O         1.7200259541       17.8158225188       10.8126631114
  P         1.7197320867        2.1670982472        3.9498582099
  P         1.7197114621       36.0405575242        5.7430566458
  P         1.7197004274       26.8149730500        7.5421536200
  P         1.7197039793       17.5867566859        9.3792375279
 Ca         1.7199667584       38.6014311300        4.0035612399
 Ca         1.7198385197       29.3688314451        5.7852185986
 Ca         1.7199656798       20.0955140526        7.5700911308
 Ca         1.7198412362       10.8424320180        9.3422594871
  O         1.7200250789       16.9571291891        2.1053584102
  O         1.7200462443        7.7203748014        3.8794446480
  O         1.7200007240       41.6505602269        5.6313009105
  O         1.7200223676       32.3995526464        7.4121502801
  O         1.7200226126       14.4717933595        2.7264902582
  O         1.7200151147        5.2451995858        4.5089443702
  O         1.7200042394       39.1680197215        6.2771615902
  O         1.7200186216       29.8947240766        8.0503188593
  P         1.7197190389       15.9887139058        3.1848903295
  P         1.7196592180        6.7037066379        4.9763943950
  P         1.7198073468       40.6386336853        6.8189821389
  P         1.7197518774       31.4002542735        8.6214732532
 Ca         1.7199919961       34.6814126836        2.7538984556
 Ca         1.7199943566       25.4331665656        4.5336170121
 Ca         1.7199152281       16.2008037348        6.3160140482
 Ca         1.7198503529        6.9173501525        8.0977677558
  O         1.7200475580       31.7675871760        4.5862710080
  O         1.7200112908       22.5200961030        6.3808209121
  O         1.7200577944       13.2587638474        8.1322048675
  O         1.7199265461        3.9947993930        9.8929299088
  O         1.7199871019       32.4658060479        2.1199302390
  O         1.7200334748       23.2070271633        3.9066459180
  O         1.7200020375       13.9385708352        5.6690545863
  O         1.7200521827        4.6892154069        7.4446495835
  P         1.7196377595       31.2690518443        3.0778959798
  P         1.7196627905       22.0255296035        4.8485360712
  P         1.7197482679       12.7604427182        6.6727701219
  P         1.7196841987        3.5376797221        8.5034320877
 Ca         1.7200025811       19.2322135561        3.5419835557
 Ca         1.7199752877        9.9488846695        5.3283503480
 Ca         1.7199782955        0.7323738853        7.1175823003
 Ca         1.7199859741       34.6271565411        8.9038076835
  O         5.1590525200       20.9603962119        2.6224787593
  O         5.1589745936       11.7593755477        4.4078264837
  O         5.1589710417        2.4525792032        6.1706070312
  O         5.1589650049       36.4259925304        7.9536237546
  O         5.1590190108       19.1887056640        0.8020206139
  O         5.1590058891        9.9488680119        2.5942355510
  O         5.1589770575        0.6674565911        4.3354768980
  O         5.1589774128       34.6207804764        6.1270046552
  P         5.1592472925       19.4908873801        2.2831448491
  P         5.1592396672       10.1659243823        4.0368407501
  P         5.1593005292        0.9749260595        5.8874677280
  P         5.1592796763       34.8553069894        7.6814674380
 Ca         5.1597215991       26.1628770562        2.2964850498
 Ca         5.1589629278       16.9320631487        4.0519229509
 Ca         5.1589276091        7.6470762872        5.8255381894
 Ca         5.1590613050       41.5988636680        7.6242562572
  O         5.1590076001        4.6087115672        4.2180566056
  O         5.1589671548       38.5515866426        5.9971354103
  O         5.1589690218       29.2801126573        7.7843714477
  O         5.1589749052       20.0547656022        9.5286172982
  O         5.1589843877        7.0879996538        3.5828323951
  O         5.1589775766       41.0317135808        5.3512991940
  O         5.1589811487       31.7580777139        7.1238575084
  O         5.1590085166       22.5403092525        8.9060534278
  P         5.1592029742        5.6581459021        3.0285415539
  P         5.1592798272       39.5669495798        4.8135900987
  P         5.1592982555       30.3553120213        6.6157011992
  P         5.1592223162       21.0336891562        8.4361377210
 Ca         5.1589587410       30.0977528086        3.5259935417
 Ca         5.1587824340       20.8330131113        5.2957590924
 Ca         5.1589739001       11.5577570363        7.0891787509
 Ca         5.1590637384        2.3436316497        8.8924293991
  O         5.1589834111       33.0235639051        1.7390642058
  O         5.1589476513       23.7787609570        3.5075224284
  O         5.1589677652       14.4990652752        5.2712183619
  O         5.1589619237        5.2500445542        7.0486586566
  O         5.1589846576       32.3264543420        4.1897638022
  O         5.1590393757       23.0781537242        5.9708661538
  O         5.1589503392       13.8142364110        7.7416773039
  O         5.1589323018        4.5544424254        9.5091125954
  P         5.1592891027       33.4794706618        3.1132784919
  P         5.1592290822       24.2340539633        4.9133739174
  P         5.1593253342       15.0094110493        6.7348946305
  P         5.1593967069        5.7493876978        8.5452572478
 Ca         5.1590077585        2.3938225041        2.7266294997
 Ca         5.1590460372       36.2827672159        4.5005140520
 Ca         5.1590373998       27.0449527511        6.2856031010
 Ca         5.1590127700       17.8052812607        8.0825852867
 Ca         0.0136877490       42.1645667840        4.0440953026
 Ca         0.0041426720       32.8972192449        5.8172881737
 Ca         0.0009350938       23.6397151722        7.5851178465
 Ca         0.0140484745       14.4004562210        9.3747143994
 Ca         3.4461070342       13.3724478203        4.0356262523
 Ca         3.4416472903        4.1244497806        5.8057530055
 Ca         3.4514536134       38.0409109045        7.5885150395
 Ca         3.4432028524       28.8052550401        9.3605286637
 Ca         6.8719096208       13.3724640696        4.0356581005
 Ca         6.8763746957        4.1244625520        5.8057091366
 Ca         6.8665741526       38.0409218045        7.5885002447
 Ca         6.8748164751       28.8052711836        9.3605118980
 Ca         3.4263069456       42.1645584756        4.0440823635
 Ca         3.4358339528       32.8972186118        5.8172951246
 Ca         3.4390428255       23.6397385988        7.5851582852
 Ca         3.4259115917       14.4004312997        9.3746298487
  O         1.1110000000       27.7569732994        4.0252399549
  O         1.1110000000       18.5123155843        5.8144385514
  O         1.1110000000        9.2633922996        7.5987286709
  O         1.1110000000        0.0031856261        9.3749253469
  H         0.3005598415       27.7626337226        4.0306996347
  H         0.2971386837       18.5063416507        5.8159780799
  H         0.3038898452        9.2556062883        7.5965476400
  H         0.3018940350       -0.0041038429        9.3823882563
  O         4.5500000000       27.7533368703        4.0294379587
  O         4.5500000000       18.5009285962        5.8101618201
  O         4.5500000000        9.2519508597        7.6009183821
  O         4.5500000000       -0.0004509222        9.3742570283
  H         3.7419554867       27.7608515210        4.0346832480
  H         3.7366329162       18.5085198575        5.8155126855
  H         3.7402783831        9.2559160878        7.6007898171
  H         3.7424457187       -0.0068350138        9.3823294082
  O        12.6470000000       27.7683978066        4.0364261998
  O        12.6470000000       18.4993994093        5.8112797666
  O        12.6470000000        9.2526796337        7.5896542627
  O        12.6470000000        0.0015688831        9.3716235499
  H        13.4560599238       27.7589331283        4.0341288541
  H        13.4613185336       18.5090876502        5.8153924251
  H        13.4587131473        9.2557165629        7.6032287078
  H        13.4557560956       -0.0072991129        9.3828719294
  O         2.3290000000       27.7719104709        4.0357148325
  O         2.3290000000       18.5052581288        5.8135539537
  O         2.3290000000        9.2527336016        7.5957489924
  O         2.3290000000        0.0029215623        9.3754563095
  H         3.1387007006       27.7611475967        4.0295102606
  H         3.1418880473       18.5071607496        5.8161381989
  H         3.1341808002        9.2572336743        7.5960905749
  H         3.1369155707       -0.0038649811        9.3820899268
  O         7.3447339147        2.8028003654        3.3745794183
  O         7.3535864693       36.7599860666        5.1477522211
  O         7.3534815844       27.4974579434        6.9290530517
  O         7.3490090645       18.2412317203        8.6921197266
  O         7.3422379555       16.1231853873        4.1529205210
  O         7.3461740180        6.8814805829        5.9342747935
  O         7.3495998775       40.8004410201        7.6952027873
  O         7.3518119361       31.5407072698        9.4741531669
  O         7.3454390194       30.3964282522        2.8207756591
  O         7.3567972156       21.1414454726        4.6037664210
  O         7.3570180265       11.9020658007        6.3721103274
  O         7.3438116868        2.6245348933        8.1471923006
  O        10.7870864118       18.7604123755        2.9338923052
  O        10.7883104896        9.5278382411        4.7160495462
  O        10.7944337237        0.2552484201        6.4737035495
  O        10.7843021101       34.2120601310        8.2530697378
  O        10.8019314583        5.4569581465        2.1530521828
  O        10.7859260613       39.3991143955        3.9330495195
  O        10.7907492901       30.1303331793        5.7077860648
  O        10.7828081511       20.8901721520        7.4793415134
  O        10.7796611997       34.3963254701        3.4856377083
  O        10.7883224610       25.1303124878        5.2682452238
  O        10.7978508162       15.8602692701        7.0364916702
  O        10.7854932842        6.6202821063        8.8079063679
  O        13.2896137379       18.7604398400        2.9335393306
  O        13.2885259690        9.5279886948        4.7159220830
  O        13.2823109462        0.2553798785        6.4735608923
  O        13.2924677140       34.2122142003        8.2529301920
  O        13.2748746565        5.4569072742        2.1532866808
  O        13.2908180098       39.3991771812        3.9332575238
  O        13.2859766056       30.1303903981        5.7079873739
  O        13.2938898238       20.8902643747        7.4795975290
  O        13.2970596537       34.3961211127        3.4855712073
  O        13.2883810258       25.1301336851        5.2681164197
  O        13.2788784369       15.8600852750        7.0364093247
  O        13.2908359266        6.6200550599        8.8077585450
  O         9.8525059856        2.8029543299        3.3744443329
  O         9.8437023236       36.7601363691        5.1476025372
  O         9.8437989108       27.4976067731        6.9288877625
  O         9.8482543014       18.2413891038        8.6919629455
  O         9.8550309444       16.1232306550        4.1531418035
  O         9.8510746812        6.8815041961        5.9344893582
  O         9.8477564523       40.8004948821        7.6954556950
  O         9.8454700545       31.5407604904        9.4743573410
  O         9.8519085266       30.3961789266        2.8207597461
  O         9.8404866884       21.1412492345        4.6037365538
  O         9.8402576442       11.9018831878        6.3720067617
  O         9.8534900044        2.6243327255        8.1471910343
  O         8.5990310107        0.5872731311        3.6712619168
  O         8.5990396175       34.5636929279        5.4527634611
  O         8.5990396232       25.2877020846        7.2354004539
  O         8.5990546203       16.0094543419        9.0018415193
  O         8.5990255637        2.3957233137        5.5010591106
  O         8.5990349493       36.3460935883        7.2867203553
  O         8.5990416933       27.0897818489        9.0613739926
  O         8.5990229933       17.8158229995       10.8126507309
  P         8.5987177385        2.1670998634        3.9498565583
  P         8.5986910708       36.0405596874        5.7430643882
  P         8.5986702706       26.8150192830        7.5421482087
  P         8.5987185843       17.5867298770        9.3792756787
 Ca         8.5989524859       38.6014328805        4.0035798586
 Ca         8.5988133492       29.3688182872        5.7852321140
 Ca         8.5989147026       20.0957088815        7.5703377612
 Ca         8.5989246369       10.8424365305        9.3422674491
  O         8.5990219584       16.9571456158        2.1053495298
  O         8.5990632457        7.7204681259        3.8793570491
  O         8.5990548812       41.6505847144        5.6312725794
  O         8.5990326322       32.3995564798        7.4121420322
  O         8.5990254108       14.4717973329        2.7264986069
  O         8.5990162371        5.2453173814        4.5091312025
  O         8.5990457899       39.1679963371        6.2771450304
  O         8.5990482996       29.8947265971        8.0503161392
  P         8.5986954941       15.9886962303        3.1848955426
  P         8.5987348938        6.7031763965        4.9764954626
  P         8.5986136468       40.6386244777        6.8189977732
  P         8.5987045791       31.4002484669        8.6214844427
 Ca         8.5989829783       34.6814139292        2.7539046924
 Ca         8.5989862698       25.4330978516        4.5336820806
 Ca         8.5989825748       16.2009826955        6.3160222927
 Ca         8.5989319062        6.9173952634        8.0978180854
  O         8.5990473430       31.7675856052        4.5862675137
  O         8.5990173816       22.5200705839        6.3808464663
  O         8.5990574083       13.2587589025        8.1322115261
  O         8.5990833613        3.9947739446        9.8927275042
  O         8.5989898389       32.4657983536        2.1199235005
  O         8.5990406078       23.2069804961        3.9066845400
  O         8.5990151029       13.9385666268        5.6690465024
  O         8.5990346503        4.6892095220        7.4446253710
  P         8.5986504219       31.2690421818        3.0779091176
  P         8.5986796036       22.0256306420        4.8484696347
  P         8.5987328117       12.7604455121        6.6727578513
  P         8.5986733959        3.5377185963        8.5038847656
 Ca         8.5990165503       19.2322954494        3.5419847652
 Ca         8.5989885033        9.9489329062        5.3283839199
 Ca         8.5989306126        0.7323720673        7.1175926815
 Ca         8.5989647153       34.6271553498        8.9038094842
  O        12.0379022337       20.9605039817        2.6222131302
  O        12.0379653773       11.7593970983        4.4078250641
  O        12.0379642123        2.4525769609        6.1706135488
  O        12.0379692671       36.4260420502        7.9536440200
  O        12.0380849807       19.1888351784        0.8020340508
  O        12.0380151826        9.9488679546        2.5942184173
  O        12.0379770081        0.6674676924        4.3354931056
  O        12.0379772518       34.6207901836        6.1270169361
  P        12.0382057404       19.4908098078        2.2833508327
  P        12.0382238462       10.1658878335        4.0368794497
  P        12.0382923143        0.9749204882        5.8874584438
  P        12.0382769890       34.8552597172        7.6814514733
 Ca        12.0387172172       26.1628984813        2.2963952761
 Ca        12.0380549052       16.9320916799        4.0518772224
 Ca        12.0380861118        7.6471776438        5.8256295988
 Ca        12.0380249472       41.5989856535        7.6242055754
  O        12.0379388633        4.6087249535        4.2180656425
  O        12.0379691100       38.5516074349        5.9972207528
  O        12.0379664477       29.2800969655        7.7844023908
  O        12.0379576510       20.0547714124        9.5286120209
  O        12.0380025469        7.0880199672        3.5827516939
  O        12.0379750065       41.0317207339        5.3513609070
  O        12.0379838546       31.7580828470        7.1238640088
  O        12.0380323427       22.5403141373        8.9060539080
  P        12.0382615015        5.6580497923        3.0285342475
  P        12.0382901480       39.5669524197        4.8135129170
  P        12.0383002777       30.3553173702        6.6156735447
  P        12.0383207013       21.0336944881        8.4361455154
 Ca        12.0379753982       30.0977185579        3.5259673883
 Ca        12.0383200535       20.8330268462        5.2957855493
 Ca        12.0379780803       11.5580173419        7.0891263969
 Ca        12.0381424993        2.3435842009        8.8924262032
  O        12.0379747726       33.0235661494        1.7390535147
  O        12.0379473436       23.7785585284        3.5074003788
  O        12.0379677262       14.4990599319        5.2712005346
  O        12.0379338194        5.2499982020        7.0486991624
  O        12.0379808583       32.3264617960        4.1897556573
  O        12.0379365932       23.0781555826        5.9708328485
  O        12.0379580905       13.8142015032        7.7416447682
  O        12.0378685631        4.5543639889        9.5093328903
  P        12.0383005389       33.4794730571        3.1133115063
  P        12.0382561989       24.2341385004        4.9135035109
  P        12.0383149302       15.0094474410        6.7349189656
  P        12.0386674863        5.7498298741        8.5450810038
 Ca        12.0380314042        2.3938234294        2.7266367903
 Ca        12.0380478972       36.2827620113        4.5005059011
 Ca        12.0380280018       27.0449490893        6.2855575130
 Ca        12.0380590453       17.8052175522        8.0825215613
 Ca         6.8926698654       42.1645538620        4.0441121952
 Ca         6.8831336679       32.8972225634        5.8172945167
 Ca         6.8799330622       23.6397590057        7.5850683192
 Ca         6.8930619900       14.4004477784        9.3747206442
 Ca        10.3251046976       13.3724528730        4.0356424041
 Ca        10.3206547461        4.1244625706        5.8056842456
 Ca        10.3303796433       38.0408713987        7.5884752853
 Ca        10.3221654417       28.8052842157        9.3605137745
 Ca        13.7509235387       13.3724576357        4.0356676343
 Ca        13.7553880008        4.1244692418        5.8057408458
 Ca        13.7456334549       38.0408593090        7.5884409377
 Ca        13.7538606115       28.8052840965        9.3604754325
 Ca        10.3052967759       42.1645604967        4.0440798697
 Ca        10.3148251957       32.8972190441        5.8172958264
 Ca        10.3180098915       23.6397619792        7.5850785773
 Ca        10.3049198546       14.4004473386        9.3746344926
  O         7.9900000000       27.7569421227        4.0248900000
  O         7.9900000000       18.5022236116        5.8116248866
  O         7.9900000000        9.2536095586        7.5960495486
  O         7.9900000000        0.0024390259        9.3750420286
  H         7.1793878375       27.7626397835        4.0307268765
  H         7.1759996893       18.5079604862        5.8164642673
  H         7.1828969211        9.2570790954        7.5965479087
  H         7.1810230575       -0.0039633734        9.3823657072
  O        11.4290000000       27.7525921562        4.0292998646
  O        11.4290000000       18.5115841011        5.8147271994
  O        11.4290000000        9.2513037833        7.5990987785
  O        11.4290000000       -0.0001299584        9.3739335411
  H        10.6209248884       27.7609025538        4.0346652130
  H        10.6157876219       18.5073566826        5.8149562148
  H        10.6188008622        9.2561238514        7.6014181264
  H        10.6215504861       -0.0070808555        9.3824092313
  O         5.7680000000       27.7675332916        4.0361334731
  O         5.7680000000       18.5128487145        5.8161582869
  O         5.7680000000        9.2551507078        7.5896509774
  O         5.7680000000        0.0016425664        9.3714036827
  H         6.5772203583       27.7590524156        4.0342121338
  H         6.5823467899       18.5068659325        5.8147586271
  H         6.5795703551        9.2553655546        7.6026962157
  H         6.5766093552       -0.0072159935        9.3828857930
  O         9.2080000000       27.7723001229        4.0361344571
  O         9.2080000000       18.5105228813        5.8142885705
  O         9.2080000000        9.2617230997        7.5994104088
  O         9.2080000000        0.0036947504        9.3754452196
  H        10.0177905797       27.7610782270        4.0293681248
  H        10.0208578170       18.5069063670        5.8161574487
  H        10.0135926888        9.2561395968        7.5956200917
  H        10.0158168884       -0.0041302022        9.3821363888
  O         7.1064890644       21.4906972536       17.8379960282
  C         7.2948176669       22.8692230277       17.8619889489
  O         7.4841569435       24.2539889518       17.8857354535
     387
 i =        2, E =     -6909.9849705295
  O         0.4583339146        2.7981546511        3.3723371028
  O         0.4741433862       36.7636153621        5.1460237402
  O         0.4717655182       27.4973215187        6.9277197253
  O         0.4685286168       18.2392241414        8.6852738173
  O         0.4609523664       16.1206830782        4.1568051209
  O         0.4667330420        6.8831877249        5.9370486082
  O         0.4650923585       40.7962104605        7.6959313206
  O         0.4672739812       31.5364723660        9.4761614305
  O         0.4617492209       30.3929593632        2.8234140018
  O         0.4775141367       21.1370403636        4.6066959609
  O         0.4762347755       11.9016854572        6.3722064968
  O         0.4631773510        2.6225316295        8.1452157407
  O         3.9071205869       18.7567972844        2.9413401193
  O         3.9060358076        9.5321931870        4.7244176949
  O         3.9150366937        0.2509483782        6.4716711160
  O         3.8980142316       34.2164358513        8.2541047222
  O         3.9225361272        5.4529473128        2.1510882336
  O         3.9017810230       39.3999798129        3.9314333123
  O         3.9110916951       30.1269079354        5.7068391964
  O         3.9016551140       20.8906514711        7.4771605791
  O         3.8989952449       34.4019569040        3.4888014697
  O         3.9083186920       25.1338814458        5.2724939641
  O         3.9172590762       15.8606596353        7.0379059472
  O         3.9025175780        6.6243684133        8.8056160218
  O         6.4116408964       18.7572392120        2.9411262399
  O         6.4126995271        9.5323771419        4.7241760878
  O         6.4036794047        0.2511131492        6.4714861411
  O         6.4207269187       34.2166054747        8.2539533245
  O         6.3961782571        5.4530764857        2.1512985390
  O         6.4169602659       39.4000485823        3.9316544126
  O         6.4076468911       30.1270539364        5.7071188596
  O         6.4171142746       20.8907706974        7.4774205802
  O         6.4197149987       34.4017506812        3.4887317930
  O         6.4104067706       25.1337456398        5.2723488022
  O         6.4014748085       15.8604877728        7.0377950970
  O         6.4161388658        6.6242366291        8.8054938542
  O         2.9809052852        2.7983103483        3.3721791062
  O         2.9651312714       36.7637683376        5.1458595609
  O         2.9675320198       27.4974551120        6.9276030055
  O         2.9707594213       18.2393818850        8.6850850701
  O         2.9783001010       16.1207204393        4.1570240624
  O         2.9724028004        6.8831648449        5.9373065771
  O         2.9741012235       40.7962968405        7.6960982564
  O         2.9720023156       31.5365408120        9.4763814601
  O         2.9776086639       30.3927440570        2.8233603295
  O         2.9618254017       21.1368028539        4.6066725575
  O         2.9629798727       11.9014164536        6.3721757873
  O         2.9761491106        2.6223740306        8.1451708301
  O         1.7200486292        0.5776118387        3.6707916024
  O         1.7200399175       34.5617331254        5.4523780410
  O         1.7200369999       25.2844783777        7.2369839122
  O         1.7200660865       16.0018190794        8.9996595307
  O         1.7200084096        2.3931573806        5.5010856331
  O         1.7200124116       36.3493746621        7.2929202913
  O         1.7200242968       27.0926746663        9.0669325677
  O         1.7200361164       17.8141410903       10.8233719031
  P         1.7197270481        2.1714280911        3.9488796839
  P         1.7197061815       36.0404902386        5.7418995520
  P         1.7197078079       26.8155250841        7.5442320788
  P         1.7196968901       17.5908859707        9.3814265013
 Ca         1.7199615732       38.6009811643        4.0077666212
 Ca         1.7198424560       29.3771717273        5.7861566252
 Ca         1.7199389781       20.0964571241        7.5739117011
 Ca         1.7198378723       10.8453188757        9.3447171737
  O         1.7200356815       16.9640437242        2.1002344893
  O         1.7199898472        7.7280897266        3.8798948654
  O         1.7200126918       41.6498195273        5.6272296822
  O         1.7200262258       32.4009229333        7.4107644504
  O         1.7200173306       14.4639320570        2.7304748976
  O         1.7199740808        5.2416534106        4.5110589649
  O         1.7200088845       39.1639039182        6.2772174907
  O         1.7200400781       29.8894170867        8.0502030224
  P         1.7197384313       15.9844364559        3.1847466622
  P         1.7199155091        6.7024226694        4.9746571160
  P         1.7197563614       40.6407794522        6.8232612530
  P         1.7197213834       31.4013992692        8.6264710608
 Ca         1.7199910885       34.6671712455        2.7542033048
 Ca         1.7199899981       25.4237167308        4.5343750480
 Ca         1.7199226250       16.1988948492        6.3157135702
 Ca         1.7199139032        6.9036403488        8.0970281627
  O         1.7200523842       31.7674525472        4.5904812700
  O         1.7200249083       22.5228658238        6.3879895016
  O         1.7200699196       13.2593839753        8.1345290511
  O         1.7199547253        3.9983012886        9.9012153079
  O         1.7199830722       32.4755001712        2.1208141890
  O         1.7200463257       23.2161062014        3.9073706524
  O         1.7200092256       13.9380307001        5.6669822717
  O         1.7200023173        4.6907879512        7.4416515266
  P         1.7197046013       31.2662223908        3.0704901311
  P         1.7196416561       22.0255480776        4.8433123322
  P         1.7197017373       12.7617201562        6.6722069489
  P         1.7196422002        3.5336667091        8.5030462472
 Ca         1.7199951393       19.2348586283        3.5314341836
 Ca         1.7200123885        9.9376589638        5.3182206406
 Ca         1.7199512565        0.7396301952        7.1194092023
 Ca         1.7199878193       34.6173914104        8.8995713778
  O         5.1590567005       20.9623133112        2.6270704605
  O         5.1589553831       11.7695325853        4.4113578487
  O         5.1589634083        2.4539581461        6.1696558815
  O         5.1589577137       36.4335195546        7.9525551616
  O         5.1590160046       19.1890990240        0.7983902245
  O         5.1589864603        9.9536767066        2.5853750403
  O         5.1589691369        0.6621432620        4.3271673838
  O         5.1589740557       34.6238237956        6.1265026190
  P         5.1592397125       19.4913329023        2.2777703550
  P         5.1593283966       10.1577669860        4.0310358126
  P         5.1593193193        0.9749951055        5.8908175702
  P         5.1592856030       34.8526119368        7.6837197045
 Ca         5.1597210889       26.1549780666        2.2972796727
 Ca         5.1589313036       16.9371647044        4.0428193855
 Ca         5.1589569715        7.6399591909        5.8181589785
 Ca         5.1590674248       41.6041331969        7.6227201372
  O         5.1590040133        4.6049803766        4.2185622230
  O         5.1589588735       38.5510051392        6.0005309709
  O         5.1589579761       29.2744387423        7.7887295963
  O         5.1589572365       20.0482846574        9.5319553765
  O         5.1589772441        7.0886135321        3.5868755948
  O         5.1589744185       41.0328467325        5.3502350243
  O         5.1589674636       31.7636056434        7.1249217894
  O         5.1589923156       22.5479322150        8.9033295826
  P         5.1592265197        5.6623906102        3.0283388235
  P         5.1592840527       39.5682023699        4.8114547658
  P         5.1593449365       30.3560385159        6.6143558351
  P         5.1593029936       21.0365449811        8.4360637585
 Ca         5.1589699522       30.1103777977        3.5232512428
 Ca         5.1588141938       20.8401375564        5.2883864953
 Ca         5.1589887676       11.5562080411        7.0839278663
 Ca         5.1590724568        2.3541124677        8.8920122014
  O         5.1589736084       33.0210711435        1.7291641172
  O         5.1589399313       23.7828615968        3.4989129469
  O         5.1589671935       14.4973032944        5.2688070123
  O         5.1589572577        5.2504909262        7.0472095207
  O         5.1589838572       32.3273052709        4.1936608643
  O         5.1590483228       23.0807582869        5.9752732173
  O         5.1589545275       13.8119208300        7.7445574432
  O         5.1589270373        4.5492435068        9.5087081147
  P         5.1592940182       33.4791068296        3.1141428019
  P         5.1592116701       24.2318640463        4.9133809856
  P         5.1592845868       15.0086852957        6.7320507318
  P         5.1593365369        5.7502705822        8.5495785185
 Ca         5.1590140869        2.4060938845        2.7321116652
 Ca         5.1590504835       36.2750048118        4.5013352795
 Ca         5.1590415986       27.0455961779        6.2891371959
 Ca         5.1590195536       17.8115053007        8.0908702586
 Ca         0.0156721615       42.1689098825        4.0500929157
 Ca         0.0028289058       32.8940973754        5.8169001922
 Ca        -0.0017891509       23.6345742118        7.5803655328
 Ca         0.0163279621       14.4026231328        9.3736177375
 Ca         3.4460101641       13.3747343766        4.0364531682
 Ca         3.4401155678        4.1284664633        5.8051914009
 Ca         3.4520617673       38.0390302493        7.5841512362
 Ca         3.4411679529       28.8114106977        9.3533604714
 Ca         6.8720122929       13.3747440804        4.0364929205
 Ca         6.8779526244        4.1284847570        5.8051432630
 Ca         6.8659732753       38.0390346426        7.5841355407
 Ca         6.8768603813       28.8114285121        9.3533438300
 Ca         3.4243019949       42.1689038062        4.0500668246
 Ca         3.4371320505       32.8941058153        5.8169046912
 Ca         3.4417340942       23.6345894402        7.5803830999
 Ca         3.4236302531       14.4026040589        9.3735305499
  O         1.1109686575       27.7496747814        4.0252772059
  O         1.1027415972       18.5129658332        5.8154978550
  O         1.1010080896        9.2703900656        7.6030242855
  O         1.1131468962        0.0036689498        9.3709877891
  H         0.3013462659       27.7669491276        4.0282434382
  H         0.3005180343       18.5058352966        5.8157817170
  H         0.2971917956        9.2518396008        7.5943100668
  H         0.3030639355       -0.0049490173        9.3865313099
  O         4.5398220065       27.7475752829        4.0267467917
  O         4.5407251787       18.4957326048        5.8106900424
  O         4.5505161875        9.2567946069        7.6035620252
  O         4.5405785543       -0.0007512042        9.3712677805
  H         3.7360270710       27.7637847340        4.0364203788
  H         3.7395594576       18.5108713215        5.8154690765
  H         3.7395448663        9.2528299621        7.6031797197
  H         3.7363205222       -0.0084139121        9.3864168574
  O        12.6577189682       27.7685614230        4.0365812796
  O        12.6567477825       18.4938146599        5.8124039491
  O        12.6476599679        9.2582057722        7.5866431837
  O        12.6570865138        0.0021073963        9.3672456516
  H        13.4611908843       27.7588249726        4.0345492052
  H        13.4575698633       18.5118827743        5.8151527512
  H        13.4572964131        9.2526192519        7.6080716627
  H        13.4606826115       -0.0092936609        9.3874823132
  O         2.3286880539       27.7706613962        4.0402708164
  O         2.3367800846       18.5023799187        5.8142190985
  O         2.3380057415        9.2550916531        7.5985937170
  O         2.3262205222        0.0032973598        9.3717966410
  H         3.1384711437       27.7624162059        4.0249464133
  H         3.1393507432       18.5080815022        5.8161135426
  H         3.1429443622        9.2556152065        7.5944269219
  H         3.1368774411       -0.0046757406        9.3861499865
  O         7.3373589650        2.7981512142        3.3723359544
  O         7.3531544572       36.7636108098        5.1460121505
  O         7.3507547836       27.4973110981        6.9277345145
  O         7.3475367169       18.2392547538        8.6852476585
  O         7.3399860968       16.1207039942        4.1568003048
  O         7.3459476388        6.8831521774        5.9370904725
  O         7.3441713021       40.7962289452        7.6958594654
  O         7.3462698468       31.5364720255        9.4761625000
  O         7.3407664118       30.3929517800        2.8234152876
  O         7.3564916334       21.1369300455        4.6067407340
  O         7.3552984459       11.9016485399        6.3722558178
  O         7.3421753900        2.6225598183        8.1450994845
  O        10.7860683766       18.7568929741        2.9414417069
  O        10.7850513086        9.5321542985        4.7243766387
  O        10.7940665349        0.2509413864        6.4716565104
  O        10.7770256242       34.2164445213        8.2541038117
  O        10.8015211053        5.4530579871        2.1510524319
  O        10.7807745809       39.3999734658        3.9314351715
  O        10.7900852975       30.1269083228        5.7068367697
  O        10.7806196361       20.8906848862        7.4772002735
  O        10.7779974810       34.4019553728        3.4887953472
  O        10.7872867434       25.1338557851        5.2725179074
  O        10.7962487805       15.8606927436        7.0378645925
  O        10.7814675169        6.6242779079        8.8055373115
  O        13.2906063914       18.7569479317        2.9410744609
  O        13.2917303644        9.5323407978        4.7241274093
  O        13.2826684814        0.2510919075        6.4714771324
  O        13.2997210251       34.2166132337        8.2539548675
  O        13.2752537721        5.4530168445        2.1513321652
  O        13.2959464517       39.4000422881        3.9316765057
  O        13.2866370158       30.1270531209        5.7071174038
  O        13.2960799689       20.8907139411        7.4773899987
  O        13.2987041759       34.4017455762        3.4887287503
  O        13.2893983534       25.1337287974        5.2723442769
  O        13.2804708130       15.8604193249        7.0378066350
  O        13.2949650396        6.6241436120        8.8054008742
  O         9.8599329033        2.7983247004        3.3721686185
  O         9.8441431749       36.7637749260        5.1458575806
  O         9.8465060964       27.4974435089        6.9276216839
  O         9.8497514852       18.2394073888        8.6850763685
  O         9.8573045323       16.1208053772        4.1570845613
  O         9.8514739678        6.8832587711        5.9372131105
  O         9.8531739998       40.7962833124        7.6961112843
  O         9.8510039487       31.5365350144        9.4763762484
  O         9.8565935682       30.3927527260        2.8233609416
  O         9.8407983657       21.1367664666        4.6066838607
  O         9.8420255455       11.9014652355        6.3721257325
  O         9.8551197048        2.6223296442        8.1450505603
  O         8.5990545278        0.5776148609        3.6707795160
  O         8.5990459436       34.5617314660        5.4523744338
  O         8.5990336526       25.2844714219        7.2369923933
  O         8.5990644442       16.0018220976        8.9996559709
  O         8.5990201206        2.3931619099        5.5010940446
  O         8.5990395604       36.3493728331        7.2929196060
  O         8.5990242535       27.0926624073        9.0669255828
  O         8.5990335845       17.8141426968       10.8233744610
  P         8.5986849090        2.1714334533        3.9488971388
  P         8.5986935640       36.0404902395        5.7419066474
  P         8.5987286453       26.8155526381        7.5442302997
  P         8.5987100951       17.5908757059        9.3814439034
 Ca         8.5989487700       38.6009801090        4.0077897877
 Ca         8.5988229478       29.3771573515        5.7861701436
 Ca         8.5989315126       20.0966483336        7.5741459116
 Ca         8.5989376352       10.8453115027        9.3447181848
  O         8.5990405424       16.9640568704        2.1002318723
  O         8.5991455012        7.7281424716        3.8798736104
  O         8.5990669895       41.6498351415        5.6272027062
  O         8.5990427568       32.4009251846        7.4107575904
  O         8.5990452752       14.4639440324        2.7304854044
  O         8.5990392427        5.2416835665        4.5112422127
  O         8.5990510208       39.1638837697        6.2772006974
  O         8.5990406089       29.8894186792        8.0502003820
  P         8.5986542727       15.9844271084        3.1847470583
  P         8.5984673459        6.7020149648        4.9747077089
  P         8.5986349598       40.6407728473        6.8232644576
  P         8.5987236692       31.4013958075        8.6264804308
 Ca         8.5989785369       34.6671721308        2.7542103922
 Ca         8.5989815676       25.4236506494        4.5344427482
 Ca         8.5989583280       16.1990613958        6.3157285686
 Ca         8.5988754057        6.9036827629        8.0970830158
  O         8.5990521006       31.7674510997        4.5904779271
  O         8.5990129085       22.5228390623        6.3880068916
  O         8.5990706317       13.2593765966        8.1345294190
  O         8.5990458032        3.9983236278        9.9011669668
  O         8.5989998831       32.4754902247        2.1208083716
  O         8.5990476890       23.2160857222        3.9073914569
  O         8.5990212802       13.9380315982        5.6669735618
  O         8.5990671756        4.6907616537        7.4416416840
  P         8.5986856205       31.2662175140        3.0705037785
  P         8.5987038375       22.0256057567        4.8432691848
  P         8.5987132250       12.7617234348        6.6722013117
  P         8.5987806477        3.5336617694        8.5033215956
 Ca         8.5990005509       19.2349576809        3.5314509421
 Ca         8.5988837267        9.9377009157        5.3182527927
 Ca         8.5989395786        0.7396412519        7.1194192149
 Ca         8.5989625500       34.6173908308        8.8995745341
  O        12.0378552689       20.9623933048        2.6268295066
  O        12.0379497381       11.7694668860        4.4113484135
  O        12.0379730507        2.4539548138        6.1696373121
  O        12.0379626499       36.4335662075        7.9525735560
  O        12.0380614690       19.1892114549        0.7984265289
  O        12.0379960175        9.9536616956        2.5853900551
  O        12.0379631736        0.6621557836        4.3271694090
  O        12.0379741094       34.6238353682        6.1265093900
  P        12.0382632392       19.4912764488        2.2779153219
  P        12.0383110866       10.1578065294        4.0310350106
  P        12.0383058340        0.9750032562        5.8908231439
  P        12.0382829107       34.8525720755        7.6837149634
 Ca        12.0387103800       26.1549941667        2.2971954898
 Ca        12.0381034160       16.9371857134        4.0427730701
 Ca        12.0380963125        7.6400362715        5.8182287496
 Ca        12.0380346088       41.6042642842        7.6226622790
  O        12.0379304191        4.6049819551        4.2185245712
  O        12.0379595718       38.5510291018        6.0006098410
  O        12.0379544246       29.2744450886        7.7887305831
  O        12.0379534093       20.0482768195        9.5319537644
  O        12.0380015375        7.0885257747        3.5868978614
  O        12.0379701648       41.0328456813        5.3502900976
  O        12.0379692652       31.7636063212        7.1249146165
  O        12.0380440552       22.5479178763        8.9033272197
  P        12.0383032589        5.6625220996        3.0284077372
  P        12.0382972358       39.5682103493        4.8114033738
  P        12.0383514042       30.3560352642        6.6143644420
  P        12.0382630328       21.0365766069        8.4360747294
 Ca        12.0379908286       30.1103504901        3.5232334162
 Ca        12.0383015301       20.8401508866        5.2884186439
 Ca        12.0379961086       11.5564748004        7.0838923766
 Ca        12.0381346651        2.3540755935        8.8920045933
  O        12.0379642012       33.0210754146        1.7291630664
  O        12.0379419715       23.7826994019        3.4988624763
  O        12.0379567658       14.4972902527        5.2687914109
  O        12.0379354529        5.2504468178        7.0471768258
  O        12.0379797714       32.3273079169        4.1936549086
  O        12.0379424437       23.0807555774        5.9752373095
  O        12.0379443132       13.8118806286        7.7445152301
  O        12.0378529716        4.5492366200        9.5088717434
  P        12.0383039865       33.4791096044        3.1141595833
  P        12.0382199974       24.2319104176        4.9134392044
  P        12.0383549389       15.0087184502        6.7320645268
  P        12.0385509439        5.7506092735        8.5495029957
 Ca        12.0380282186        2.4060637426        2.7321130305
 Ca        12.0380528859       36.2750010747        4.5013249369
 Ca        12.0380292830       27.0455816193        6.2891284914
 Ca        12.0380590916       17.8114617458        8.0908186614
 Ca         6.8946523712       42.1689006906        4.0501118592
 Ca         6.8818231531       32.8941038348        5.8169044262
 Ca         6.8772335640       23.6345938760        7.5802922299
 Ca         6.8953397903       14.4026146185        9.3736202049
 Ca        10.3249869345       13.3747528987        4.0364764286
 Ca        10.3190633812        4.1284140762        5.8051931612
 Ca        10.3309827390       38.0389891741        7.5841033408
 Ca        10.3201578059       28.8114242565        9.3533587222
 Ca        13.7510517222       13.3747611036        4.0365061552
 Ca        13.7569782779        4.1284241678        5.8052366295
 Ca        13.7450379027       38.0389738536        7.5840660466
 Ca        13.7558761655       28.8114257453        9.3533149904
 Ca        10.3032985206       42.1689090832        4.0500707821
 Ca        10.3161262674       32.8941040425        5.8169084988
 Ca        10.3207254154       23.6346191241        7.5803204833
 Ca        10.3026375861       14.4026155178        9.3735451427
  O         7.9898475292       27.7495906492        4.0247626916
  O         7.9816551989       18.4984896871        5.8116594113
  O         7.9799853892        9.2564683129        7.5989070457
  O         7.9922522068        0.0026230028        9.3711505545
  H         7.1804006232       27.7669482832        4.0283209263
  H         7.1795341786       18.5097012807        5.8168891107
  H         7.1761456375        9.2553241126        7.5948116901
  H         7.1820095361       -0.0046620296        9.3864873450
  O        11.4188341081       27.7465360622        4.0265124465
  O        11.4198361502       18.5120144404        5.8174182821
  O        11.4291488470        9.2562213880        7.6010106520
  O        11.4196387257       -0.0003195185        9.3707826057
  H        10.6150449014       27.7639765199        4.0364380532
  H        10.6185197392       18.5076719940        5.8140229516
  H        10.6186253402        9.2532923099        7.6043403749
  H        10.6153234574       -0.0087434478        9.3865654138
  O         5.7787754465       27.7673427424        4.0361939111
  O         5.7777221139       18.5135809124        5.8194688271
  O         5.7684326380        9.2613820631        7.5864637237
  O         5.7780497668        0.0022458551        9.3668983875
  H         6.5821577335       27.7591124401        4.0346955988
  H         6.5785569366       18.5067684529        5.8135195862
  H         6.5782753954        9.2516276308        7.6074059587
  H         6.5817109948       -0.0092191843        9.3875419370
  O         9.2077612006       27.7711747910        4.0408566609
  O         9.2157566325       18.5108853222        5.8155568721
  O         9.2172420144        9.2681399301        7.6039676179
  O         9.2051330611        0.0043890779        9.3717659769
  H        10.0174553746       27.7622632658        4.0247006057
  H        10.0183977607       18.5069734332        5.8160544390
  H        10.0218204860        9.2527192325        7.5931868113
  H        10.0158865865       -0.0051101905        9.3862028327
  O         7.1135882745       21.5419766803       17.8383642953
  C         7.2947730596       22.8686124298       17.8620504609
  O         7.4775183394       24.2033516002       17.8855499771
     387
 i =        3, E =     -6910.5080175560
  O         0.4104968031        2.7637279556        3.3567471066
  O         0.4727820381       36.7894396671        5.1348359605
  O         0.4550117778       27.4955567261        6.9202154464
  O         0.4616122602       18.2241420740        8.6359949590
  O         0.4479784182       16.1008726368        4.1831496622
  O         0.4667594108        6.8948531576        5.9546886926
  O         0.4285757069       40.7647237928        7.6998446222
  O         0.4301293254       31.5038244651        9.4898387637
  O         0.4323904300       30.3707459507        2.8421637704
  O         0.4780059736       21.1067664179        4.6273988037
  O         0.4654896984       11.9007514450        6.3737744974
  O         0.4538664698        2.6095301799        8.1292761309
  O         3.9041063699       18.7326476644        2.9944436611
  O         3.8876124096        9.5645949848        4.7847011205
  O         3.9126011348        0.2203868129        6.4553682270
  O         3.8500875413       34.2495761222        8.2604237703
  O         3.9219580098        5.4241768239        2.1370880069
  O         3.8680697345       39.4072254023        3.9206338990
  O         3.9083857562       30.1028371855        5.7014148937
  O         3.8887085165       20.8951351992        7.4639303486
  O         3.8911498193       34.4388780722        3.5107224047
  O         3.9040299853       25.1565629409        5.3037300412
  O         3.9076942681       15.8613152783        7.0485890648
  O         3.8779643977        6.6511745905        8.7886501643
  O         6.4145154111       18.7331116762        2.9944564044
  O         6.4308534128        9.5650207736        4.7832923953
  O         6.4060752834        0.2205960530        6.4548711665
  O         6.4684980472       34.2498059436        8.2602280918
  O         6.3965619264        5.4244439898        2.1374971148
  O         6.4505485712       39.4073449374        3.9210659425
  O         6.4104463776       30.1037173830        5.7022962467
  O         6.4297852367       20.8960761979        7.4649054082
  O         6.4274258300       34.4386220882        3.5106616992
  O         6.4144169494       25.1568408054        5.3031881680
  O         6.4110349172       15.8615491441        7.0481099423
  O         6.4407810598        6.6516193986        8.7884722303
  O         3.0288967091        2.7638958718        3.3564000841
  O         2.9665747073       36.7896743932        5.1346009383
  O         2.9845314505       27.4955290052        6.9206305911
  O         2.9778029537       18.2244079998        8.6356689735
  O         2.9913512600       16.1006216162        4.1832100655
  O         2.9719765761        6.8943171192        5.9556334708
  O         3.0108965749       40.7648728285        7.7001502206
  O         3.0093714387       31.5039839597        9.4902809307
  O         3.0070002280       30.3710402021        2.8418470415
  O         2.9613384212       21.1059933764        4.6275796170
  O         2.9738016385       11.8997656747        6.3739966532
  O         2.9856013913        2.6093603252        8.1293402949
  O         1.7202174580        0.5126950575        3.6678286270
  O         1.7201107817       34.5488921354        5.4504329994
  O         1.7201175280       25.2645259958        7.2499390077
  O         1.7201277838       15.9534464587        8.9859162361
  O         1.7199390128        2.3757427012        5.4987335218
  O         1.7200210723       36.3730554491        7.3343563184
  O         1.7200631096       27.1139864543        9.1052822380
  O         1.7201191047       17.8008560783       10.8905393618
  P         1.7196641097        2.1970342884        3.9389771399
  P         1.7196978189       36.0430048642        5.7361352794
  P         1.7198669477       26.8181732899        7.5593520800
  P         1.7196820236       17.6168814845        9.4008984726
 Ca         1.7199276728       38.5975122562        4.0394383947
 Ca         1.7199590203       29.4384533674        5.7927869818
 Ca         1.7196845626       20.1026358873        7.6012519177
 Ca         1.7198264942       10.8662112389        9.3617051430
  O         1.7200929172       17.0033104260        2.0741355160
  O         1.7197302874        7.7836813810        3.8866229692
  O         1.7200773952       41.6415754462        5.6009322623
  O         1.7200445969       32.4083471223        7.4050967092
  O         1.7199661147       14.4099151663        2.7587793424
  O         1.7197292164        5.2162501800        4.5262544803
  O         1.7200280811       39.1378180643        6.2800523508
  O         1.7201775896       29.8558826141        8.0515117642
  P         1.7199651213       15.9614648714        3.1785913464
  P         1.7212024126        6.6958742593        4.9630650495
  P         1.7195579932       40.6531879011        6.8518964854
  P         1.7196313517       31.4068804552        8.6607791697
 Ca         1.7199797191       34.5622090457        2.7563725778
 Ca         1.7199155873       25.3541463957        4.5407808538
 Ca         1.7200434117       16.1851610416        6.3132746281
 Ca         1.7203917703        6.8047996423        8.0915322939
  O         1.7200902316       31.7640123954        4.6141131796
  O         1.7201307116       22.5422271354        6.4326861746
  O         1.7201746689       13.2632765715        8.1508022497
  O         1.7201154866        4.0189762987        9.9486076891
  O         1.7199414266       32.5391606363        2.1296823072
  O         1.7201518213       23.2788408536        3.9144949364
  O         1.7200942485       13.9340992801        5.6521361672
  O         1.7197011945        4.6977660637        7.4219485502
  P         1.7202119503       31.2475318909        3.0209895345
  P         1.7194646308       22.0254135488        4.8113519186
  P         1.7193211250       12.7673327194        6.6683577601
  P         1.7194872704        3.5095940774        8.5088854449
 Ca         1.7199782763       19.2528308976        3.4535115518
 Ca         1.7201015809        9.8538477681        5.2445660760
 Ca         1.7197869929        0.7931481088        7.1344876598
 Ca         1.7200087607       34.5450693884        8.8679210890
  O         5.1590552329       20.9730243115        2.6610331939
  O         5.1588109892       11.8343026811        4.4348070916
  O         5.1589004355        2.4630116110        6.1620794404
  O         5.1589071112       36.4842095028        7.9444506485
  O         5.1589656236       19.1919751103        0.7714187687
  O         5.1587841208        9.9900090899        2.5219950576
  O         5.1589082708        0.6234331447        4.2712963534
  O         5.1589480412       34.6443453120        6.1263241999
  P         5.1591871670       19.4927723621        2.2449285576
  P         5.1600228731       10.1061225197        3.9943663303
  P         5.1594339657        0.9726808964        5.9083067894
  P         5.1592858108       34.8391035628        7.7006550837
 Ca         5.1596024509       26.0958696609        2.3042799096
 Ca         5.1585982726       16.9760452990        3.9754866202
 Ca         5.1591453893        7.5876134893        5.7647378631
 Ca         5.1591080658       41.6460462693        7.6135825138
  O         5.1589820129        4.5787023030        4.2196972133
  O         5.1588971365       38.5496391228        6.0212350087
  O         5.1588702158       29.2387619746        7.8151539858
  O         5.1588096032       20.0077445285        9.5495709893
  O         5.1589540694        7.0930599126        3.6156914020
  O         5.1589437140       41.0394642678        5.3411878930
  O         5.1588451437       31.7987851616        7.1311805158
  O         5.1588292633       22.5999585583        8.8818424277
  P         5.1593267798        5.6905288660        3.0264051509
  P         5.1592889187       39.5757533204        4.7958546411
  P         5.1596817267       30.3595315021        6.6082373365
  P         5.1599319208       21.0519662407        8.4389307763
 Ca         5.1590927107       30.2008311365        3.5028032471
 Ca         5.1591737701       20.8898683425        5.2329607107
 Ca         5.1591198580       11.5453576965        7.0427405172
 Ca         5.1591207600        2.4284753106        8.8895012094
  O         5.1588977728       33.0075844038        1.6701405565
  O         5.1588917872       23.8162836249        3.4434121286
  O         5.1589717607       14.4848963475        5.2522767161
  O         5.1589583907        5.2546313335        7.0396670589
  O         5.1589814300       32.3353232263        4.2204851355
  O         5.1591254308       23.1004686117        6.0059886113
  O         5.1590111939       13.7971411631        7.7649721499
  O         5.1588767218        4.5153779263        9.5049941726
  P         5.1593082765       33.4776766845        3.1095847839
  P         5.1590129662       24.2213797253        4.9103631644
  P         5.1589220597       15.0041717275        6.7138291695
  P         5.1589607064        5.7589839631        8.5791728974
 Ca         5.1590649272        2.4985838974        2.7730594995
 Ca         5.1590829188       36.2182346029        4.5071955599
 Ca         5.1590002743       27.0503200565        6.3140322682
 Ca         5.1591064046       17.8577319456        8.1505275966
 Ca         0.0300070229       42.2024456051        4.0957279009
 Ca        -0.0060292635       32.8711715959        5.8137953067
 Ca        -0.0207421423       23.5962224483        7.5448941107
 Ca         0.0331325099       14.4186666472        9.3645215696
 Ca         3.4459631221       13.3915367741        4.0433237703
 Ca         3.4293553655        4.1590421913        5.8015535991
 Ca         3.4561645607       38.0253047164        7.5507324397
 Ca         3.4263292180       28.8568963476        9.3002370886
 Ca         6.8721002983       13.3914997111        4.0434186868
 Ca         6.8889872421        4.1590819723        5.8014754150
 Ca         6.8619200754       38.0252566277        7.5506913238
 Ca         6.8917674865       28.8569290705        9.3002198552
 Ca         3.4098263816       42.2024402044        4.0956100584
 Ca         3.4458728162       32.8712588584        5.8137886698
 Ca         3.4604369249       23.5962091105        7.5447520778
 Ca         3.4068253192       14.4187087267        9.3644352008
  O         1.1012631132       27.6844360627        4.0240063480
  O         1.0899220419       18.5218308597        5.8245993928
  O         1.0393645379        9.3322739548        7.6431187999
  O         1.0979435443        0.0074830912        9.3338533378
  H         0.3197899492       27.8117612999        4.0059487976
  H         0.2788893916       18.4981789298        5.8131238976
  H         0.2559471207        9.2142255776        7.5670434207
  H         0.3240805551       -0.0110492993        9.4231969484
  O         4.4843100279       27.6969254464        4.0010464893
  O         4.5192744289       18.4467596075        5.8141897221
  O         4.5383968354        9.2984402659        7.6291988290
  O         4.4760694122       -0.0020766417        9.3425663290
  H         3.6975209739       27.7940074937        4.0577037334
  H         3.7171589657       18.5360585116        5.8148141080
  H         3.7613205474        9.2223638372        7.6238038588
  H         3.6953896720       -0.0216786680        9.4225952843
  O        12.7126263112       27.7739473426        4.0390303904
  O        12.6789214739       18.4412372904        5.8219145197
  O        12.6587450928        9.3066048900        7.5533120364
  O        12.7218741219        0.0086294806        9.3248644214
  H        13.5010227857       27.7542054390        4.0400881298
  H        13.4804854775       18.5425661136        5.8122685941
  H        13.4364732344        9.2229942091        7.6563641336
  H        13.5021042177       -0.0270446142        9.4296894195
  O         2.3376536777       27.7641615558        4.0838637366
  O         2.3495069603       18.4752432280        5.8194871856
  O         2.3994711388        9.2735472785        7.6238316627
  O         2.3413698004        0.0061925841        9.3374839956
  H         3.1193922431       27.7720226227        3.9785663458
  H         3.1602534536       18.5171546908        5.8152632960
  H         3.1833948127        9.2415422628        7.5751266146
  H         3.1149401852       -0.0106048357        9.4221047831
  O         7.2895160656        2.7636775010        3.3567421283
  O         7.3517834628       36.7894349612        5.1348045086
  O         7.3338394302       27.4955633480        6.9202130287
  O         7.3406872190       18.2241720764        8.6359732609
  O         7.3268622816       16.1005139705        4.1828819803
  O         7.3464393971        6.8941763462        5.9552071647
  O         7.3074695990       40.7647721652        7.6998765003
  O         7.3090172995       31.5038400253        9.4899018035
  O         7.3113914884       30.3707322587        2.8422026377
  O         7.3570245360       21.1063195259        4.6276384980
  O         7.3446474188       11.9002906298        6.3740613554
  O         7.3328139891        2.6096852872        8.1293659164
  O        10.7830650586       18.7325496478        2.9948526950
  O        10.7666074005        9.5642185363        4.7844455423
  O        10.7915985975        0.2203298714        6.4553307828
  O        10.7290974502       34.2495993945        8.2604214369
  O        10.8006649239        5.4244351369        2.1370422767
  O        10.7470331024       39.4072159483        3.9206151598
  O        10.7873871763       30.1028107149        5.7013575034
  O        10.7678419609       20.8958964146        7.4646643767
  O        10.7701548375       34.4388698005        3.5107261279
  O        10.7829990116       25.1565208371        5.3036520243
  O        10.7866569148       15.8619607410        7.0482017506
  O        10.7566782195        6.6512814174        8.7884547830
  O        13.2935133045       18.7329200383        2.9941975047
  O        13.3098663697        9.5646569945        4.7831473060
  O        13.2850872846        0.2205732449        6.4548693860
  O        13.3474861469       34.2498321253        8.2602248141
  O        13.2759492587        5.4244173402        2.1376017659
  O        13.3295638990       39.4073227034        3.9210751313
  O        13.2894395495       30.1037695498        5.7023057065
  O        13.3088489699       20.8952578228        7.4642182566
  O        13.3064290810       34.4386174849        3.5106707185
  O        13.2935210325       25.1569157924        5.3030640877
  O        13.2900709746       15.8608954301        7.0484465710
  O        13.3203942586        6.6518684612        8.7883787651
  O         9.9079915756        2.7639046052        3.3563822656
  O         9.8455683389       36.7896850881        5.1346257425
  O         9.8634073723       27.4955660561        6.9206204410
  O         9.8567098514       18.2242436565        8.6357296914
  O         9.8705270332       16.1011603179        4.1837311032
  O         9.8517387106        6.8949763082        5.9549762697
  O         9.8897997410       40.7648406077        7.7001167794
  O         9.8882687562       31.5039591501        9.4902073291
  O         9.8860356157       30.3710219044        2.8418040780
  O         9.8402532852       21.1065775164        4.6273268738
  O         9.8529532807       11.9002394507        6.3737258269
  O         9.8645471342        2.6092664176        8.1290092654
  O         8.5992288727        0.5126672636        3.6677274050
  O         8.5990952529       34.5488976641        5.4504317007
  O         8.5989910059       25.2645886043        7.2499533619
  O         8.5991334388       15.9533766426        8.9859013971
  O         8.5989683415        2.3757613402        5.4987530839
  O         8.5990722269       36.3730578286        7.3343621226
  O         8.5989024995       27.1139862804        9.1052902410
  O         8.5991038923       17.8008561184       10.8906121996
  P         8.5986085541        2.1970394188        3.9390916493
  P         8.5987292984       36.0429965544        5.7361263048
  P         8.5991363680       26.8180934791        7.5593593837
  P         8.5987301598       17.6169923556        9.4008277721
 Ca         8.5989250341       38.5974948915        4.0394783913
 Ca         8.5989820279       29.4384314726        5.7928049075
 Ca         8.5991695305       20.1027958114        7.6013470296
 Ca         8.5991326028       10.8661452283        9.3616810350
  O         8.5991841168       17.0032601267        2.0741857338
  O         8.5995924117        7.7834655627        3.8869926417
  O         8.5991439315       41.6415315134        5.6009216127
  O         8.5991303084       32.4083415593        7.4050985253
  O         8.5992050094       14.4099790942        2.7588239051
  O         8.5991624076        5.2157082216        4.5264600360
  O         8.5990849114       39.1378174581        6.2800416742
  O         8.5990146229       29.8558833319        8.0515156342
  P         8.5983453136       15.9615808950        3.1785049346
  P         8.5971585183        6.6963607918        4.9627598644
  P         8.5988089321       40.6532010901        6.8518182351
  P         8.5988159098       31.4068855179        8.6607762241
 Ca         8.5989475958       34.5622090585        2.7563811662
 Ca         8.5989464174       25.3540620027        4.5408678960
 Ca         8.5987375703       16.1852223353        6.3133509552
 Ca         8.5985264826        6.8048370522        8.0916410137
  O         8.5990724039       31.7640132773        4.6141179708
  O         8.5989698980       22.5422261156        6.4326862811
  O         8.5991728752       13.2632710599        8.1507867825
  O         8.5988357817        4.0192045323        9.9492151035
  O         8.5990350282       32.5391401228        2.1296848995
  O         8.5990508463       23.2790201696        3.9144129604
  O         8.5990463617       13.9341216495        5.6521227777
  O         8.5992538479        4.6976506104        7.4219716046
  P         8.5991114668       31.2475540040        3.0209962777
  P         8.5990115259       22.0251354980        4.8114031279
  P         8.5987091581       12.7673403395        6.6683662125
  P         8.5993315545        3.5093254023        8.5083862710
 Ca         8.5989471200       19.2530527974        3.4536197916
 Ca         8.5982235571        9.8538387287        5.2446001618
 Ca         8.5989671189        0.7932243122        7.1345008242
 Ca         8.5989432192       34.5450664072        8.8679300226
  O        12.0376116373       20.9728476723        2.6609731502
  O        12.0378204834       11.8338466202        4.4347688475
  O        12.0380314157        2.4629990912        6.1619359818
  O        12.0379117490       36.4842384394        7.9444559713
  O        12.0380009880       19.1919614499        0.7715958451
  O        12.0378092087        9.9899165292        2.5221183994
  O        12.0378571246        0.6234456376        4.2712410543
  O        12.0379485511       34.6443692821        6.1263047208
  P        12.0384232623       19.4929765932        2.2446528407
  P        12.0389459651       10.1064672928        3.9942202441
  P        12.0383841265        0.9727597597        5.9083546682
  P        12.0382910050       34.8391161075        7.7007116892
 Ca        12.0385663232       26.0958084790        2.3042075614
 Ca        12.0384719167       16.9760317167        3.9754124168
 Ca        12.0382484566        7.5875344194        5.7646376472
 Ca        12.0381014511       41.6462272827        7.6134646189
  O        12.0378627593        4.5786345226        4.2194271040
  O        12.0378887244       38.5496787742        6.0212801359
  O        12.0378597380       29.2388499450        7.8150571723
  O        12.0379480247       20.0076724312        9.5495742707
  O        12.0379418462        7.0925698079        3.6164068259
  O        12.0379317012       41.0394215368        5.3412082852
  O        12.0378338264       31.7987532270        7.1310908379
  O        12.0381759240       22.5998620215        8.8818490460
  P        12.0385637303        5.6916610761        3.0268053391
  P        12.0382935802       39.5757812421        4.7959482489
  P        12.0387326817       30.3595172774        6.6083683628
  P        12.0377304300       21.0521095928        8.4389594838
 Ca        12.0381482188       30.2008401612        3.5028267487
 Ca        12.0379868949       20.8898652533        5.2330429485
 Ca        12.0381258036       11.5455890408        7.0427483351
 Ca        12.0380821606        2.4285356072        8.8894569364
  O        12.0378849614       33.0075962765        1.6701776927
  O        12.0379188260       23.8163531054        3.4437516662
  O        12.0378665258       14.4848638842        5.2522556970
  O        12.0379419353        5.2546135482        7.0393225742
  O        12.0379769859       32.3353067703        4.2204940972
  O        12.0380147788       23.1004282771        6.0059197067
  O        12.0378153047       13.7971052698        7.7648810635
  O        12.0377563459        4.5157752220        9.5048380103
  P        12.0383015916       33.4776796325        3.1095270165
  P        12.0378712187       24.2211770573        4.9100578183
  P        12.0386510127       15.0041603607        6.7137912496
  P        12.0377649235        5.7586127631        8.5795184939
 Ca        12.0380000008        2.4984184312        2.7730331767
 Ca        12.0380857378       36.2182395507        4.5071661688
 Ca        12.0380330026       27.0501918566        6.3142277653
 Ca        12.0380445681       17.8577743362        8.1505320475
 Ca         6.9089751383       42.2024529486        4.0957599249
 Ca         6.8729890415       32.8712019153        5.8137900588
 Ca         6.8584770371       23.5960550992        7.5446678330
 Ca         6.9121261226       14.4186565946        9.3645241630
 Ca        10.3248301658       13.3915836899        4.0434012898
 Ca        10.3080187643        4.1586632616        5.8019120835
 Ca        10.3350566043       38.0252516223        7.5506188884
 Ca        10.3054253513       28.8568392007        9.3002721252
 Ca        13.7512890691       13.3916103430        4.0434687326
 Ca        13.7680705869        4.1587032158        5.8018794447
 Ca        13.7410273843       38.0252021830        7.5505562833
 Ca        13.7706688100       28.8568571203        9.3001933198
 Ca        10.2888614316       42.2024686784        4.0956468941
 Ca        10.3248895765       32.8712413104        5.8138054270
 Ca        10.3395946954       23.5962389752        7.5447816705
 Ca        10.2858035501       14.4186858897        9.3645348320
  O         7.9808361200       27.6837306911        4.0217551615
  O         7.9686951586       18.4631525415        5.8106429072
  O         7.9197740597        9.2796484949        7.6244701459
  O         7.9765553582        0.0034602451        9.3344572442
  H         7.1986174627       27.8116473689        4.0065903081
  H         7.1582065434       18.5288711201        5.8216099356
  H         7.1337813527        9.2399995697        7.5734279133
  H         7.2031898308       -0.0091407477        9.4228697105
  O        11.3634219754       27.6930946576        3.9998945927
  O        11.3984858056       18.5196905743        5.8422779407
  O        11.4184224978        9.2989656893        7.6194336463
  O        11.3550311549       -0.0006333295        9.3405064205
  H        10.5766327822       27.7958174880        4.0581891607
  H        10.5956865448       18.5094554105        5.8031920933
  H        10.6396589404        9.2263880662        7.6309851574
  H        10.5745113189       -0.0227526039        9.4234897281
  O         5.8335663437       27.7693757762        4.0377822062
  O         5.7988254828       18.5243230229        5.8504330343
  O         5.7805397430        9.3161836575        7.5509536755
  O         5.8431120563        0.0094159236        9.3232650743
  H         6.6221415937       27.7563656943        4.0408448073
  H         6.6021614858       18.5032827054        5.7989018953
  H         6.5568085277        9.2141169967        7.6542860650
  H         6.6230730161       -0.0271865941        9.4302708626
  O         9.2163307873       27.7658895843        4.0860733673
  O         9.2283436521       18.5169653684        5.8268916339
  O         9.2789594289        9.3246874683        7.6461950133
  O         9.2208503207        0.0104054137        9.3372704099
  H         9.9983781628       27.7709098914        3.9772124609
  H        10.0391691420       18.5066005633        5.8145343626
  H        10.0618167459        9.2186951866        7.5651210662
  H         9.9937325548       -0.0127708865        9.4221585094
  O         7.1621533177       21.7919766803       17.8408983655
  C         7.2947863813       22.8660008534       17.8625817271
  O         7.4312857074       23.9533516002       17.8841468148
     387
 i =        4, E =     -6911.1736982308
  O         0.3791403246        2.7326635712        3.3464525198
  O         0.4744477215       36.8077486454        5.1284541371
  O         0.4469163278       27.4924917402        6.9191682098
  O         0.4630441973       18.2108416522        8.6005703453
  O         0.4429944689       16.0811024021        4.2009435414
  O         0.4708613713        6.9021770762        5.9654339163
  O         0.4028509232       40.7389224564        7.7015490722
  O         0.4048685493       31.4768981593        9.4993015532
  O         0.4167453962       30.3586103104        2.8569445657
  O         0.4831522822       21.0881281421        4.6440297744
  O         0.4600112188       11.9039112739        6.3765566497
  O         0.4501005397        2.6002656804        8.1153071362
  O         3.9076293813       18.7153521091        3.0339206031
  O         3.8826425132        9.5948707346        4.8281795613
  O         3.9112519143        0.1974060279        6.4408516337
  O         3.8168538518       34.2771320566        8.2638163601
  O         3.9249702945        5.4016905891        2.1261982962
  O         3.8457497844       39.4147854860        3.9129879467
  O         3.9101176026       30.0842725131        5.7005138487
  O         3.8835899939       20.9008102227        7.4582427128
  O         3.8915049351       34.4656461450        3.5253037657
  O         3.9056913326       25.1696017323        5.3272270426
  O         3.9031837459       15.8583679104        7.0586413914
  O         3.8656223307        6.6677759600        8.7762983085
  O         6.4109210602       18.7155959080        3.0344242707
  O         6.4357825750        9.5956094740        4.8248973543
  O         6.4074486403        0.1976351187        6.4399954525
  O         6.5016602993       34.2773942398        8.2636076766
  O         6.3934580027        5.4020508553        2.1267273489
  O         6.4728167702       39.4149349564        3.9135784878
  O         6.4089507730       30.0862996218        5.7022008317
  O         6.4348422382       20.9030186092        7.4601662138
  O         6.4269771658       34.4653467042        3.5252607199
  O         6.4123625071       25.1704587615        5.3262569500
  O         6.4154636382       15.8593435748        7.0575528430
  O         6.4532808124        6.6690680530        8.7760149502
  O         3.0602959443        2.7328366058        3.3460066595
  O         2.9649371163       36.8080097624        5.1281908478
  O         2.9928093486       27.4922596970        6.9203995618
  O         2.9764085546       18.2112465604        8.6001992569
  O         2.9963671461       16.0803283776        4.2006061037
  O         2.9676229883        6.9009361890        5.9670185191
  O         3.0366999972       40.7391111967        7.7018779241
  O         3.0347154498       31.4770996487        9.4998481187
  O         3.0229057264       30.3594368107        2.8562010001
  O         2.9561271660       21.0866178698        4.6445786067
  O         2.9792093312       11.9020572976        6.3772292059
  O         2.9894711770        2.6000658789        8.1155060897
  O         1.7203549636        0.4670686917        3.6659102107
  O         1.7201747156       34.5417455046        5.4505001385
  O         1.7201491253       25.2537010797        7.2630985776
  O         1.7201255177       15.9228464816        8.9781149613
  O         1.7198853575        2.3629392813        5.4917162335
  O         1.7200317637       36.3916282139        7.3607602199
  O         1.7200591609       27.1311372691        9.1334280936
  O         1.7201808861       17.7886188388       10.9359409666
  P         1.7196952081        2.2099373377        3.9270293611
  P         1.7197390057       36.0493871689        5.7348229125
  P         1.7202172762       26.8195786142        7.5699452098
  P         1.7197618280       17.6322569211        9.4162836061
 Ca         1.7199038768       38.5940858689        4.0674416838
 Ca         1.7202946366       29.4876728052        5.7956699902
 Ca         1.7192783006       20.1066086636        7.6226774304
 Ca         1.7199710395       10.8803411731        9.3709764933
  O         1.7201169462       17.0259842537        2.0627276098
  O         1.7195293369        7.8236808674        3.8967808097
  O         1.7201238136       41.6297057279        5.5871022290
  O         1.7200681688       32.4104134039        7.4082708282
  O         1.7198564162       14.3688196466        2.7821459940
  O         1.7194918555        5.1966204609        4.5375816311
  O         1.7200349047       39.1217783452        6.2865006855
  O         1.7203180756       29.8357032078        8.0564649067
  P         1.7203461855       15.9486180531        3.1735949783
  P         1.7224529658        6.6968695379        4.9569335656
  P         1.7195504696       40.6579783115        6.8708630458
  P         1.7196647870       31.4060902830        8.6850930811
 Ca         1.7199675805       34.4766317586        2.7592850680
 Ca         1.7198101398       25.3012541469        4.5489852605
 Ca         1.7203230803       16.1741281144        6.3104221837
 Ca         1.7210923750        6.7271805065        8.0871347145
  O         1.7201359643       31.7587298204        4.6237725746
  O         1.7202323833       22.5561348151        6.4609797365
  O         1.7202885170       13.2651593988        8.1645151250
  O         1.7202941456        4.0300685976        9.9754977467
  O         1.7199005677       32.5819680139        2.1389466631
  O         1.7202626077       23.3223966235        3.9222641357
  O         1.7202191247       13.9308259058        5.6407737866
  O         1.7193961934        4.6944283001        7.4086267496
  P         1.7205958826       31.2316632649        2.9881886149
  P         1.7192115726       22.0242178668        4.7937857352
  P         1.7189728848       12.7648964028        6.6638715501
  P         1.7193636719        3.4971629798        8.5217654967
 Ca         1.7199334877       19.2655474084        3.3870692401
 Ca         1.7201590163        9.7810053147        5.1858398088
 Ca         1.7196156066        0.8394227268        7.1479565738
 Ca         1.7200209810       34.4837302992        8.8405351729
  O         5.1590268799       20.9769058660        2.6878273071
  O         5.1586544661       11.8799571328        4.4496651668
  O         5.1588389107        2.4673659311        6.1550667427
  O         5.1588617839       36.5162590864        7.9379304171
  O         5.1589336521       19.1946698945        0.7508338947
  O         5.1584831020       10.0208177130        2.4732621393
  O         5.1588389559        0.5939404148        4.2335179425
  O         5.1589213632       34.6581091100        6.1327692197
  P         5.1590361558       19.4914707390        2.2274652932
  P         5.1608456907       10.0723626062        3.9738734722
  P         5.1595176125        0.9677746175        5.9125487589
  P         5.1592329638       34.8378840821        7.7142970453
 Ca         5.1588924333       26.0486491595        2.3164592387
 Ca         5.1579749340       17.0101318758        3.9183214562
 Ca         5.1594521490        7.5447683257        5.7232283981
 Ca         5.1591262273       41.6840722895        7.6069512595
  O         5.1589560561        4.5588618619        4.2167360243
  O         5.1588438397       38.5532239721        6.0318939090
  O         5.1587725592       29.2165121381        7.8313213446
  O         5.1586332375       19.9816222878        9.5570553925
  O         5.1589212747        7.0961626541        3.6383954197
  O         5.1589137254       41.0422967568        5.3317008516
  O         5.1586566814       31.8227400947        7.1347052220
  O         5.1585771193       22.6380937034        8.8630957442
  P         5.1593440543        5.7081116484        3.0234804890
  P         5.1592412297       39.5796102558        4.7832399452
  P         5.1601336548       30.3580218271        6.6050759597
  P         5.1606379901       21.0599834764        8.4417663257
 Ca         5.1595233628       30.2686475634        3.4861103534
 Ca         5.1598114642       20.9277104329        5.1839934937
 Ca         5.1592313332       11.5354362073        7.0027316499
 Ca         5.1591664852        2.4886648848        8.8864243635
  O         5.1588271548       33.0006476568        1.6357184884
  O         5.1588706332       23.8487426588        3.4038678452
  O         5.1590047577       14.4762624807        5.2410913041
  O         5.1589982101        5.2590863488        7.0384921265
  O         5.1589787528       32.3471714619        4.2382067156
  O         5.1591902986       23.1166146263        6.0264244040
  O         5.1591136813       13.7875379127        7.7811315510
  O         5.1588861805        4.4924408084        9.5009514663
  P         5.1592944806       33.4811405742        3.0989601724
  P         5.1588347869       24.2251871796        4.9073391886
  P         5.1584468940       15.0015706834        6.7024699727
  P         5.1584501182        5.7701839336        8.5996803498
 Ca         5.1591015350        2.5800957701        2.8078140025
 Ca         5.1591101579       36.1714687262        4.5118479962
 Ca         5.1591743355       27.0559254688        6.3278090654
 Ca         5.1592681724       17.8969631974        8.1982808124
 Ca         0.0409143273       42.2330757834        4.1360898711
 Ca        -0.0122288857       32.8516853302        5.8106631430
 Ca        -0.0342253051       23.5635165979        7.5139335012
 Ca         0.0473156275       14.4330214984        9.3546891896
 Ca         3.4470301938       13.4054748476        4.0504566856
 Ca         3.4215622961        4.1866132284        5.7996544975
 Ca         3.4592532999       38.0138929996        7.5206735093
 Ca         3.4138052586       28.8955161833        9.2544793408
 Ca         6.8710376016       13.4053574484        4.0506121485
 Ca         6.8969985443        4.1866791928        5.7995489069
 Ca         6.8588738124       38.0137982806        7.5206013725
 Ca         6.9043689336       28.8955701134        9.2544416307
 Ca         3.3988040765       42.2330557074        4.1358890673
 Ca         3.4519687224       32.8518751003        5.8106470713
 Ca         3.4737364552       23.5635463835        7.5136186286
 Ca         3.3928713459       14.4331740413        9.3546787316
  O         1.1133692485       27.5912405359        4.0197803905
  O         1.0691955417       18.5403157271        5.8357490599
  O         0.9838620461        9.4102329545        7.6916370496
  O         1.1204407092        0.0125530781        9.2833444907
  H         0.3346837015       27.8875230421        3.9763196600
  H         0.3001186307       18.4773593297        5.8079513669
  H         0.2381938365        9.1598320078        7.5141334273
  H         0.3380067000       -0.0161191955        9.4735516632
  O         4.4116917799       27.6294537346        3.9617516106
  O         4.4904453777       18.3832034875        5.8152877613
  O         4.5632284746        9.3496187469        7.6631438873
  O         4.4556819505       -0.0008350410        9.3039279262
  H         3.6789584063       27.8395791784        4.0991745069
  H         3.7390861790       18.5774817951        5.8131658523
  H         3.7705366685        9.1734695228        7.6489008406
  H         3.6695044790       -0.0377479420        9.4705219208
  O        12.7751789023       27.7856967423        4.0407272347
  O        12.7098698244       18.3726212971        5.8315653640
  O        12.6449400311        9.3656814825        7.4971414446
  O        12.7466545829        0.0201748339        9.2693719757
  H        13.5269322369       27.7372260564        4.0520573015
  H        13.4584528845       18.5961021819        5.8068406612
  H        13.4202330091        9.1802997167        7.7356620127
  H        13.5237620964       -0.0507924918        9.4881369014
  O         2.3213337372       27.7645662868        4.1502339407
  O         2.3707486588       18.4398103081        5.8253495016
  O         2.4418312091        9.2929091510        7.6553260894
  O         2.3176215817        0.0100983283        9.2905466532
  H         3.1088900199       27.7780249576        3.9012570873
  H         3.1371581592       18.5282403052        5.8127828891
  H         3.2098537581        9.2255020309        7.5391308268
  H         3.1019946009       -0.0162921594        9.4722560252
  O         7.2581577581        2.7325712539        3.3464512126
  O         7.3534458345       36.8077430923        5.1284187224
  O         7.3257304069       27.4924805356        6.9192530057
  O         7.3422431655       18.2109065291        8.6005519223
  O         7.3216495358       16.0801570999        4.2002826676
  O         7.3509081505        6.9006851397        5.9664350735
  O         7.2816739585       40.7389577085        7.7016004589
  O         7.2837013511       31.4769121648        9.4993929854
  O         7.2957617013       30.3586881679        2.8570343391
  O         7.3622822247       21.0870991663        4.6446204704
  O         7.3393530123       11.9028786049        6.3772177558
  O         7.3290632167        2.6005331765        8.1156148386
  O        10.7865714194       18.7149301941        3.0347978796
  O        10.7615437178        9.5941295292        4.8276896979
  O        10.7902255709        0.1973146853        6.4407845348
  O        10.6958570462       34.2771652465        8.2638188791
  O        10.8035057124        5.4021388060        2.1262005111
  O        10.7247106250       39.4147786829        3.9129689170
  O        10.7891907089       30.0842772560        5.7004614646
  O        10.7628133585       20.9027855723        7.4599953251
  O        10.7705281844       34.4656316981        3.5253113293
  O        10.7847955077       25.1694373658        5.3270622562
  O        10.7822368232       15.8599425691        7.0577172852
  O        10.7440276532        6.6682151642        8.7759365551
  O        13.2899333711       18.7156840615        3.0338127318
  O        13.3147993775        9.5948786302        4.8247444216
  O        13.2864593874        0.1976099743        6.4400095375
  O        13.3806540427       34.2774287638        8.2636050453
  O        13.2730894621        5.4021298613        2.1269208055
  O        13.3518512941       39.4149043081        3.9135833834
  O        13.2880311263       30.0863495228        5.7021778985
  O        13.3138093822       20.9010625765        7.4586413839
  O        13.3060062439       34.4653418614        3.5252729845
  O        13.2915721751       25.1707181613        5.3259004105
  O        13.2945969978       15.8577519108        7.0585030225
  O        13.3335257160        6.6695749465        8.7758587414
  O         9.9394202890        2.7328300618        3.3459977736
  O         9.8439246631       36.8080253671        5.1282356824
  O         9.8716208788       27.4923283813        6.9204094652
  O         9.8552772241       18.2108016664        8.6003551818
  O         9.8757635108       16.0816251395        4.2018749743
  O         9.8479270535        6.9023980088        5.9658587012
  O         9.9155348869       40.7390970176        7.7018648926
  O         9.9135743243       31.4770792331        9.4997590479
  O         9.9019730523       30.3594633065        2.8561314912
  O         9.8350114093       21.0880665300        4.6438700096
  O         9.8585196110       11.9031164207        6.3765874760
  O         9.8684644872        2.5999072144        8.1149418589
  O         8.5993710177        0.4670220153        3.6657561968
  O         8.5991428398       34.5417618206        5.4505054355
  O         8.5989424698       25.2538083709        7.2631509628
  O         8.5992920727       15.9226544273        8.9780748464
  O         8.5989297442        2.3629618086        5.4917618852
  O         8.5990986946       36.3916369357        7.3607775800
  O         8.5987495593       27.1311618983        9.1334913445
  O         8.5991796633       17.7885996964       10.9360483232
  P         8.5986643191        2.2099483266        3.9271708277
  P         8.5987914299       36.0493689072        5.7347953726
  P         8.5995515125       26.8194828125        7.5698692144
  P         8.5987763030       17.6325117996        9.4162075578
 Ca         8.5989083652       38.5940542200        4.0674835565
 Ca         8.5993462825       29.4876069678        5.7956326479
 Ca         8.5996245120       20.1067782015        7.6226021589
 Ca         8.5993534339       10.8802286671        9.3709298699
  O         8.5993397266       17.0258806832        2.0628164097
  O         8.5999754269        7.8233942641        3.8972732420
  O         8.5992138965       41.6296230110        5.5871016178
  O         8.5992059478       32.4104127188        7.4082903357
  O         8.5994200983       14.3690115735        2.7822624092
  O         8.5993211298        5.1958352249        4.5378343451
  O         8.5991162761       39.1217943643        6.2864993993
  O         8.5989993828       29.8357262884        8.0565329539
  P         8.5979456840       15.9488348675        3.1733987021
  P         8.5958963634        6.6976983817        4.9564571339
  P         8.5989081739       40.6580010207        6.8707421146
  P         8.5988969020       31.4060663934        8.6850567732
 Ca         8.5989219660       34.4766100429        2.7592825254
 Ca         8.5987529897       25.3011236580        4.5490826878
 Ca         8.5983590543       16.1740287364        6.3106184768
 Ca         8.5980629800        6.7271970924        8.0872776281
  O         8.5991085426       31.7587668274        4.6238234868
  O         8.5989136416       22.5561688934        6.4609713126
  O         8.5993852149       13.2651760602        8.1644912351
  O         8.5986485402        4.0303501675        9.9763501358
  O         8.5990615383       32.5820064873        2.1389430232
  O         8.5989979869       23.3226927815        3.9221187734
  O         8.5990542800       13.9308803100        5.6407459406
  O         8.5994745494        4.6942677572        7.4086744125
  P         8.5994182343       31.2315915765        2.9881702086
  P         8.5994350974       22.0237795748        4.7938350293
  P         8.5988300140       12.7648765052        6.6638920018
  P         8.5996913710        3.4968169235        8.5209456045
 Ca         8.5989008081       19.2659301114        3.3873022012
 Ca         8.5973897156        9.7809595004        5.1858314839
 Ca         8.5989558471        0.8395270266        7.1479789159
 Ca         8.5989316146       34.4837177343        8.8405426405
  O        12.0374032972       20.9765510367        2.6880505666
  O        12.0376649464       11.8791671601        4.4496176806
  O        12.0380622455        2.4673636024        6.1548249400
  O        12.0378644079       36.5162710325        7.9379242114
  O        12.0379063023       19.1945033874        0.7510585848
  O        12.0375320525       10.0206769856        2.4734401475
  O        12.0377567104        0.5939492564        4.2334310682
  O        12.0379273452       34.6581424227        6.1327393393
  P        12.0385570942       19.4918397687        2.2267903933
  P        12.0396831796       10.0729249126        3.9735974671
  P        12.0384482956        0.9678736982        5.9126088176
  P        12.0382391857       34.8379433717        7.7143791651
 Ca        12.0388317776       26.0483744682        2.3163616872
 Ca        12.0390967708       17.0101623780        3.9182294930
 Ca        12.0385126301        7.5444851133        5.7228853795
 Ca        12.0381464314       41.6842807943        7.6067774536
  O        12.0378082198        4.5586914442        4.2162816109
  O        12.0378278386       38.5532718679        6.0319161617
  O        12.0377967199       29.2166838173        7.8311169495
  O        12.0379841044       19.9814889614        9.5570728831
  O        12.0378908653        7.0953884152        3.6400549113
  O        12.0378982541       41.0422418783        5.3317057567
  O        12.0376585595       31.8227131494        7.1345611665
  O        12.0384000557       22.6380042937        8.8631398095
  P        12.0386402611        5.7101391107        3.0240811367
  P        12.0382245153       39.5796287685        4.7834081206
  P        12.0390639447       30.3579662489        6.6052737209
  P        12.0370253425       21.0601682970        8.4417385576
 Ca        12.0384591048       30.2687142800        3.4862106219
 Ca        12.0373539351       20.9276570428        5.1841304051
 Ca        12.0382476612       11.5354629128        7.0027461326
 Ca        12.0380594508        2.4888616869        8.8863692937
  O        12.0378238552       33.0006547122        1.6357587773
  O        12.0379137287       23.8490262842        3.4042469239
  O        12.0377467540       14.4762305469        5.2411312688
  O        12.0379792157        5.2591215321        7.0378467118
  O        12.0379911186       32.3471452389        4.2382146290
  O        12.0381681575       23.1166091062        6.0262882240
  O        12.0376030132       13.7875179943        7.7811537788
  O        12.0377163922        4.4930127377        9.5006080545
  P        12.0382482891       33.4811478267        3.0988882845
  P        12.0373333766       24.2248348863        4.9070781245
  P        12.0390518186       15.0015880820        6.7022605385
  P        12.0370780179        5.7695114154        8.6002939725
 Ca        12.0379762797        2.5798212339        2.8077540142
 Ca        12.0381057995       36.1714783601        4.5118060985
 Ca        12.0382663807       27.0557548108        6.3282013200
 Ca        12.0379983102       17.8972295159        8.1982701309
 Ca         6.9198778716       42.2330931952        4.1361307116
 Ca         6.8668289534       32.8517174405        5.8106405495
 Ca         6.8451679230       23.5631811894        7.5135515122
 Ca         6.9260296729       14.4329969568        9.3548439136
 Ca        10.3257917786       13.4054661557        4.0506029692
 Ca        10.3000032145        4.1859310091        5.8003160865
 Ca        10.3381377192       38.0138253982        7.5205127940
 Ca        10.2930180269       28.8953630871        9.2545536631
 Ca        13.7504345459       13.4055398611        4.0506943646
 Ca        13.7761344224        4.1859752462        5.8002472532
 Ca        13.7380044638       38.0137431444        7.5204292051
 Ca        13.7831144788       28.8954206907        9.2544852141
 Ca        10.2778634993       42.2331018226        4.1359417785
 Ca        10.3309881040       32.8518283957        5.8106626523
 Ca        10.3529717318       23.5634976395        7.5137216619
 Ca        10.2715590798       14.4331049486        9.3547479652
  O         7.9936931656       27.5901138131        4.0153641385
  O         7.9457063748       18.4174668557        5.8067721114
  O         7.8748222741        9.3042327061        7.6568374463
  O         7.9999524798        0.0039744234        9.2844356677
  H         7.2135405520       27.8870853324        3.9782274397
  H         7.1828381427       18.5625304738        5.8316378562
  H         7.1063714434        9.2228353091        7.5300265808
  H         7.2161446367       -0.0110689842        9.4727279031
  O        11.2883716129       27.6252585228        3.9631671357
  O        11.3733778169       18.5384861333        5.8734364312
  O        11.4414399520        9.3514790982        7.6432125068
  O        11.3343018557        0.0018581428        9.2999957770
  H        10.5590679252       27.8435360692        4.1000216670
  H        10.6138732556       18.5094547761        5.7831750341
  H        10.6490571233        9.1868028933        7.6683222523
  H        10.5487674980       -0.0396878859        9.4727662048
  O         5.9001097603       27.7787146222        4.0411264334
  O         5.8251979608       18.5477715945        5.8900011642
  O         5.7674838773        9.3857471263        7.4919767975
  O         5.8681938556        0.0219276297        9.2660764809
  H         6.6464966268       27.7427360708        4.0535119935
  H         6.5833004067       18.4905474316        5.7709600028
  H         6.5380790717        9.1545109874        7.7307287680
  H         6.6447325848       -0.0517086595        9.4897337123
  O         9.1990075196       27.7666476648        4.1536356375
  O         9.2481432170       18.5315820327        5.8416008552
  O         9.3325953069        9.3954352454        7.6970499004
  O         9.1966418953        0.0191541287        9.2899610687
  H         9.9892043987       27.7752162935        3.8983030803
  H        10.0165176755       18.5035710003        5.8124656790
  H        10.0785740940        9.1689681976        7.5142609109
  H         9.9813296948       -0.0216254031        9.4722570487
  O         7.1882014146       21.8751926133       17.8405135798
  C         7.2963029315       22.8758756926       17.8633680824
  O         7.4054820807       23.8579606786       17.8850916780
     387
 i =        5, E =     -6911.2829785623
  O         0.3593634770        2.7128867237        3.3313769115
  O         0.4776396765       36.8275254930        5.1194032301
  O         0.4359492354       27.4874846781        6.9187410111
  O         0.4669413254       18.1910648047        8.5807934977
  O         0.4367493482       16.0613255546        4.2207203890
  O         0.4780383381        6.9128270323        5.9809728385
  O         0.3830740756       40.7191456089        7.7037891766
  O         0.3850917017       31.4571213117        9.5132315446
  O         0.3969685486       30.3415367810        2.8767214132
  O         0.4921359300       21.0683512945        4.6638066220
  O         0.4524867492       11.9096545864        6.3811211154
  O         0.4453107844        2.5865232785        8.0955302886
  O         3.9144297079       18.6955752615        3.0536974507
  O         3.8775559344        9.6146475822        4.8479564088
  O         3.9093144606        0.1776291803        6.4210747861
  O         3.7970770043       34.2969089042        8.2684914675
  O         3.9304193641        5.3819137415        2.1098082790
  O         3.8259729368       39.4266819813        3.9016750628
  O         3.9136474358       30.0644956655        5.6999113129
  O         3.8770821952       20.9099495105        7.4507833955
  O         3.8936584073       34.4854229926        3.5450806132
  O         3.9094419195       25.1880605555        5.3470038902
  O         3.8971481110       15.8529955388        7.0742552043
  O         3.8487003010        6.6875528076        8.7578064862
  O         6.4040157277       18.6958190604        3.0542011183
  O         6.4408578857        9.6153863215        4.8446742019
  O         6.4094366662        0.1778582712        6.4202186049
  O         6.5214371469       34.2971710874        8.2682687320
  O         6.3878864039        5.3822740077        2.1105088377
  O         6.4925936178       39.4268743167        3.9025033537
  O         6.4058332794       30.0665227743        5.7028994480
  O         6.4412982601       20.9142477874        7.4542481028
  O         6.4246862105       34.4851235518        3.5450375675
  O         6.4079846491       25.1898742576        5.3460337976
  O         6.4213502032       15.8552079776        7.0721591550
  O         6.4704486531        6.6888449005        8.7573391762
  O         3.0800727918        2.7130597582        3.3307890899
  O         2.9617797570       36.8277866099        5.1191028063
  O         3.0040569874       27.4869202876        6.9213127239
  O         2.9725565369       18.1914697128        8.5804224094
  O         3.0026557432       16.0605515300        4.2203829513
  O         2.9601448956        6.9104375396        5.9834906841
  O         3.0564768448       40.7193343491        7.7041263317
  O         3.0544922974       31.4573228011        9.5139161446
  O         3.0426825739       30.3432023129        2.8759778476
  O         2.9470316145       21.0668410222        4.6643554543
  O         2.9866028668       11.9064059766        6.3825384922
  O         2.9944119129        2.5862693644        8.0957292422
  O         1.7205655595        0.4472918442        3.6631022704
  O         1.7202737271       34.5317482996        5.4510185298
  O         1.7201890302       25.2386040204        7.2828754252
  O         1.7201084712       15.9030696340        8.9671032065
  O         1.7198059580        2.3438526025        5.4798200578
  O         1.7200485109       36.4114050615        7.3805370675
  O         1.7200385984       27.1509141167        9.1532049412
  O         1.7202738011       17.7695766430       10.9557178142
  P         1.7197523543        2.2274894397        3.9078084094
  P         1.7198119229       36.0600796293        5.7337463703
  P         1.7208062054       26.8214297537        7.5858086547
  P         1.7199039220       17.6520337687        9.4360604537
 Ca         1.7198685703       38.5887691553        4.0872185314
 Ca         1.7208660676       29.5074496528        5.7995887721
 Ca         1.7186048862       20.1123626420        7.6424542779
 Ca         1.7202425861       10.9001180207        9.3840606732
  O         1.7201466807       17.0457611013        2.0484791082
  O         1.7192435375        7.8434577150        3.9134915621
  O         1.7201904924       41.6103737613        5.5678894523
  O         1.7201046664       32.4125202137        7.4149984626
  O         1.7196733256       14.3490427990        2.8019228416
  O         1.7191299766        5.1768436134        4.5546046236
  O         1.7200420010       39.1020014976        6.2973375227
  O         1.7205352237       29.8159263602        8.0648827800
  P         1.7209762546       15.9310888983        3.1653443381
  P         1.7243146722        6.6998630634        4.9481266353
  P         1.7195852988       40.6638761910        6.8906398934
  P         1.7197480746       31.4036762279        8.7048699286
 Ca         1.7199479967       34.4568549111        2.7640505131
 Ca         1.7196392001       25.2814772993        4.5622288484
 Ca         1.7207984220       16.1573902678        6.3058936367
 Ca         1.7222288047        6.7074036589        8.0805198829
  O         1.7202100449       31.7500035870        4.6360137071
  O         1.7203921429       22.5759116627        6.4807565841
  O         1.7204685320       13.2676929735        8.1842919726
  O         1.7205674307        4.0453219061        9.9952745942
  O         1.7198358989       32.6017448615        2.1536052856
  O         1.7204391024       23.3421734710        3.9346611073
  O         1.7204254568       13.9258244728        5.6236796644
  O         1.7189298306        4.6871215997        7.3891000578
  P         1.7211730768       31.2118864173        2.9684117673
  P         1.7187928519       22.0222574614        4.7740088876
  P         1.7184268635       12.7595316253        6.6568240445
  P         1.7191937118        3.4802841431        8.5415423442
 Ca         1.7198608835       19.2843624976        3.3672923926
 Ca         1.7202235206        9.7612284672        5.1660629612
 Ca         1.7193528822        0.8591995744        7.1677334213
 Ca         1.7200391715       34.4639534516        8.8207583253
  O         5.1589764925       20.9814860130        2.7076041546
  O         5.1584082966       11.8997339804        4.4694420144
  O         5.1587426485        2.4732165963        6.1441708089
  O         5.1587921528       36.5360359339        7.9280255252
  O         5.1588860962       19.1988360645        0.7310570471
  O         5.1579900435       10.0405945606        2.4534852917
  O         5.1587297051        0.5741635672        4.2137410949
  O         5.1588795829       34.6778859576        6.1441338805
  P         5.1587832614       19.4890247713        2.2076884456
  P         5.1621615322       10.0525857586        3.9540966246
  P         5.1596409280        0.9595709968        5.9163749702
  P         5.1591403932       34.8384674130        7.7340738929
 Ca         5.1577179826       26.0288723119        2.3362360863
 Ca         5.1569337914       17.0299087234        3.8985446086
 Ca         5.1599488136        7.5249914781        5.7034515506
 Ca         5.1591455102       41.7038491371        7.5971802371
  O         5.1589157312        4.5390850143        4.2113116141
  O         5.1587618618       38.5598216904        6.0465246369
  O         5.1586196906       29.1967352905        7.8510981921
  O         5.1583505415       19.9618454402        9.5663451574
  O         5.1588719773        7.1007294996        3.6581722673
  O         5.1588662188       41.0459897688        5.3167409559
  O         5.1583482245       31.8425169423        7.1395526265
  O         5.1581620633       22.6578705510        8.8433188967
  P         5.1593513680        5.7278884959        3.0186540057
  P         5.1591577858       39.5849036799        4.7640459470
  P         5.1608550359       30.3549708710        6.6010799069
  P         5.1617635608       21.0706874463        8.4467106260
 Ca         5.1602500474       30.2884244110        3.4663335059
 Ca         5.1608740077       20.9474872805        5.1642166461
 Ca         5.1593865552       11.5203066009        6.9829548023
 Ca         5.1592341606        2.5084417324        8.8816271255
  O         5.1587180015       32.9913695630        1.6159416409
  O         5.1588441334       23.8685195064        3.3840909976
  O         5.1590622609       14.4634978320        5.2246370075
  O         5.1590717335        5.2661488520        7.0379000518
  O         5.1589758121       32.3663994933        4.2579835632
  O         5.1592942350       23.1363914739        6.0462012515
  O         5.1592848623       13.7735704216        7.8009083986
  O         5.1589098249        4.4726639608        9.4945320004
  P         5.1592665740       33.4873543903        3.0802475626
  P         5.1585414364       24.2338262476        4.9021843962
  P         5.1576806712       14.9979013604        6.6861604676
  P         5.1576402973        5.7881664536        8.6194571974
 Ca         5.1591569744        2.5998726177        2.8275908501
 Ca         5.1591516960       36.1516918786        4.5189038040
 Ca         5.1594838740       27.0648033213        6.3473225803
 Ca         5.1595408569       17.9167400450        8.2180576600
 Ca         0.0572986624       42.2528526310        4.1558667187
 Ca        -0.0213894969       32.8319084826        5.8057896585
 Ca        -0.0540021527       23.5437397503        7.4941566536
 Ca         0.0670924750       14.4527983459        9.3391181801
 Ca         3.4489234689       13.4252516952        4.0616890511
 Ca         3.4099422830        4.2063900760        5.7969977896
 Ca         3.4638661027       37.9965208549        7.5008966618
 Ca         3.3946863125       28.9152930308        9.2347024932
 Ca         6.8691437249       13.4251342959        4.0619400355
 Ca         6.9089415739        4.2064560404        5.7968501368
 Ca         6.8543259054       37.9963537493        7.5008245249
 Ca         6.9236084285       28.9153469609        9.2346647831
 Ca         3.3822461566       42.2528325550        4.1556659148
 Ca         3.4609698675       32.8320982527        5.8057597817
 Ca         3.4934748083       23.5437695359        7.4938417811
 Ca         3.3730944984       14.4529508889        9.3392474243
  O         1.1317371028       27.5714636884        4.0122258325
  O         1.0494186941       18.5600925747        5.8537358888
  O         0.9640851986        9.4300098020        7.7114138972
  O         1.1402175568        0.0206691077        9.2635676431
  H         0.3544605491       27.9072998896        3.9565428124
  H         0.3198954782       18.4575824821        5.7991914631
  H         0.2184169890        9.1400551603        7.4943565797
  H         0.3577835476       -0.0236788956        9.4933285108
  O         4.3919149323       27.6096768870        3.9419747631
  O         4.4706685302       18.3634266399        5.8165359919
  O         4.5830053222        9.3693955945        7.6829207348
  O         4.4359051029        0.0016211756        9.2841510787
  H         3.6591815587       27.8593560260        4.1189513544
  H         3.7588630266       18.5972586427        5.8103990029
  H         3.7871454950        9.1536926753        7.6686776882
  H         3.6497276314       -0.0575247896        9.4902987684
  O        12.7949557498       27.8054735899        4.0433299196
  O        12.7296466720       18.3528444495        5.8467843697
  O        12.6251631835        9.3854583301        7.4773645971
  O        12.7664314304        0.0393043422        9.2495951281
  H        13.5467090844       27.7174492088        4.0718341491
  H        13.4386760369       18.6158790294        5.7977570001
  H        13.4004561615        9.1605228692        7.7554388602
  H        13.5435389440       -0.0705693393        9.5079137490
  O         2.3015568897       27.7669892551        4.1700107882
  O         2.3905255064       18.4200334606        5.8346414523
  O         2.4616080567        9.3126859986        7.6751029369
  O         2.2978447341        0.0163491739        9.2707698057
  H         3.0914268357       27.7863902259        3.8814802398
  H         3.1173813117       18.5464647024        5.8084960772
  H         3.2296306057        9.2057251833        7.5193539792
  H         3.0822177534       -0.0250151433        9.4920328727
  O         7.2383809105        2.7127944063        3.3313811504
  O         7.3566346299       36.8275199399        5.1193646086
  O         7.3147696264       27.4874400712        6.9189692694
  O         7.3463401609       18.1911296816        8.5807750747
  O         7.3150240442       16.0603802524        4.2200595151
  O         7.3585845040        6.9100135975        5.9826732042
  O         7.2618971109       40.7191808609        7.7038521825
  O         7.2639245036       31.4571353172        9.5133560294
  O         7.2759848537       30.3417603998        2.8768111867
  O         7.3714520241       21.0673223187        4.6643973180
  O         7.3321229339       11.9076855101        6.3823952092
  O         7.3243184708        2.5869601058        8.0958379910
  O        10.7933462190       18.6951533465        3.0545747272
  O        10.7562930037        9.6139063768        4.8474665455
  O        10.7882520568        0.1775378377        6.4210076872
  O        10.6760801986       34.2969420941        8.2685030188
  O        10.8087410122        5.3823619585        2.1098951320
  O        10.7049337774       39.4266807387        3.9016605395
  O        10.7928385025       30.0645004084        5.6998744756
  O        10.7564289727       20.9139408687        7.4542074809
  O        10.7727108933       34.4854085457        3.5450881768
  O        10.7887646660       25.1877005391        5.3468391038
  O        10.7763685989       15.8560964350        7.0724458006
  O        10.7266177359        6.6879920118        8.7571792620
  O        13.2830516981       18.6959072139        3.0535895794
  O        13.3198882812        9.6146554778        4.8445212692
  O        13.2884402916        0.1778331268        6.4202326899
  O        13.4004308903       34.2972056114        8.2682683382
  O        13.2678523404        5.3823530137        2.1108422959
  O        13.3716281417       39.4268323156        3.9025034615
  O        13.2850509633       30.0665726753        5.7028311187
  O        13.3200724109       20.9104212427        7.4513681458
  O        13.3037562895       34.4851187090        3.5450498321
  O        13.2873567490       25.1904318352        5.3456772581
  O        13.3006562641       15.8520717680        7.0741338987
  O        13.3516417362        6.6893517940        8.7570849525
  O         9.9591971366        2.7130532142        3.3308016674
  O         9.8407602565       36.8278022147        5.1191779206
  O         9.8827824035       27.4870396401        6.9213590727
  O         9.8513695658       18.1910248188        8.5805783342
  O         9.8824086343       16.0618482919        4.2216518219
  O         9.8411931417        6.9132014878        5.9816138495
  O         9.9353117345       40.7193201700        7.7041610907
  O         9.9333511719       31.4573023855        9.5138152683
  O         9.9217498999       30.3433068720        2.8759083388
  O         9.8258631957       21.0682896824        4.6636468572
  O         9.8661607862       11.9084186082        6.3812832681
  O         9.8734989414        2.5860136517        8.0951650114
  O         8.5995877727        0.4472451678        3.6628720833
  O         8.5992171982       34.5317806835        5.4510345108
  O         8.5988645145       25.2387784593        7.2829278103
  O         8.5995578078       15.9028775798        8.9670194091
  O         8.5988706598        2.3438814211        5.4799117832
  O         8.5991390210       36.4114137833        7.3805544275
  O         8.5985062495       27.1509387458        9.1532681921
  O         8.5992980084       17.7695238717       10.9558251708
  P         8.5987857785        2.2275071587        3.9079768954
  P         8.5988918661       36.0600473530        5.7336894424
  P         8.6002013936       26.8213204517        7.5855953373
  P         8.5988606312       17.6522886472        9.4359844054
 Ca         8.5988835470       38.5887160976        4.0872604041
 Ca         8.5999607813       29.5073838153        5.7994648316
 Ca         8.6003939087       20.1125580284        7.6423790065
 Ca         8.5997080944       10.9000055147        9.3839840604
  O         8.5995856710       17.0456575308        2.0486274820
  O         8.6005446666        7.8431711117        3.9141263444
  O         8.5993206797       41.6102344331        5.5679037411
  O         8.5993239770       32.4125287207        7.4150454332
  O         8.5997677434       14.3492347260        2.8020392568
  O         8.5995688018        5.1760583773        4.5549409804
  O         8.5991648657       39.1020175167        6.2973518054
  O         8.5989837241       29.8159494408        8.0650556305
  P         8.5973007513       15.9314670221        3.1649651004
  P         8.5940239087        6.7011397241        4.9474110274
  P         8.5990497372       40.6639117881        6.8905189621
  P         8.5990127903       31.4036033370        8.7048336208
 Ca         8.5988829892       34.4568331954        2.7640292005
 Ca         8.5984405187       25.2813468104        4.5623400374
 Ca         8.5977348511       16.1570269640        6.3062913063
 Ca         8.5973253184        6.7074202448        8.0807159233
  O         8.5991666337       31.7500988826        4.6361394358
  O         8.5988213871       22.5759457410        6.4807481602
  O         8.5997363480       13.2677488335        8.1842680827
  O         8.5983699067        4.0456499982        9.9961269834
  O         8.5990970782       32.6017833348        2.1535911397
  O         8.5988965684       23.3424696291        3.9344266853
  O         8.5990599299       13.9259286588        5.6236266398
  O         8.5998161497        4.6869046160        7.3891756643
  P         8.5998961031       31.2118147289        2.9683933610
  P         8.6001322393       22.0215929863        4.7740581817
  P         8.5990581311       12.7594648524        6.6568614923
  P         8.6001942514        3.4798515556        8.5407224521
 Ca         8.5988393827       19.2850049132        3.3675253536
 Ca         8.5960770746        9.7611826528        5.1660546363
 Ca         8.5989279903        0.8593038742        7.1677557634
 Ca         8.5989138488       34.4639408867        8.8207657929
  O        12.0370956705       20.9808597618        2.7078274142
  O        12.0374159859       11.8989440077        4.4693945281
  O        12.0381053823        2.4732326181        6.1437876537
  O        12.0377910602       36.5360478801        7.9280017320
  O        12.0377636103       19.1984296553        0.7312817372
  O        12.0370789400       10.0404538332        2.4536633000
  O        12.0376007613        0.5741724089        4.2136542206
  O        12.0378943125       34.6779192702        6.1440918425
  P        12.0387381751       19.4896455678        2.2070135457
  P        12.0408564553       10.0531480650        3.9538206195
  P        12.0385444851        0.9596904888        5.9164419813
  P        12.0381480856       34.8385980584        7.7341560127
 Ca        12.0392544019       26.0285976207        2.3361385347
 Ca        12.0401214864       17.0299392256        3.8984526455
 Ca        12.0389558513        7.5247082658        5.7031085319
 Ca        12.0382089704       41.7040576418        7.5969191215
  O        12.0377241475        4.5389145967        4.2105914150
  O        12.0377342653       38.5598805646        6.0465149116
  O        12.0377006764       29.1969069698        7.8508937971
  O        12.0380508793       19.9617121138        9.5663855490
  O        12.0378072504        7.0995852067        3.6598317589
  O        12.0378462661       41.0459224575        5.3167265314
  O        12.0373712564       31.8424899970        7.1393303386
  O        12.0387724579       22.6577811413        8.8433629619
  P        12.0387280199        5.7299159583        3.0195143996
  P        12.0381040279       39.5849013090        4.7643140675
  P        12.0395904646       30.3548548430        6.6013557133
  P        12.0358821417       21.0709201517        8.4465792198
 Ca        12.0389916298       30.2884911275        3.4664337743
 Ca        12.0362849831       20.9474338904        5.1643535576
 Ca        12.0384241512       11.5199546694        6.9829692850
 Ca        12.0380287004        2.5086385344        8.8815582457
  O        12.0377306240       32.9913670075        1.6159819297
  O        12.0379134840       23.8688031317        3.3844700764
  O        12.0375534007       14.4634755451        5.2247822088
  O        12.0380409159        5.2662742143        7.0368195082
  O        12.0380156935       32.3663611737        4.2579914765
  O        12.0384227683       23.1363859538        6.0460650716
  O        12.0372537230       13.7735885157        7.8009306264
  O        12.0376642558        4.4732358901        9.4939297189
  P        12.0381576185       33.4873684074        3.0801663261
  P        12.0364649354       24.2332579353        4.9020530249
  P        12.0396979942       14.9979704985        6.6856651188
  P        12.0360381675        5.7870916647        8.6200708201
 Ca        12.0379404127        2.5995980815        2.8275308618
 Ca        12.0381352688       36.1517015125        4.5188429765
 Ca        12.0386748664       27.0645683245        6.3479781675
 Ca        12.0379128500       17.9170063635        8.2180469785
 Ca         6.9362559188       42.2528700427        4.1559075591
 Ca         6.8577304789       32.8319405929        5.8057406565
 Ca         6.8254217379       23.5434043419        7.4937746646
 Ca         6.9458065204       14.4527738044        9.3395485650
 Ca        10.3275288529       13.4252430033        4.0619460642
 Ca        10.2880649880        4.2057078567        5.7981023464
 Ca        10.3427421893       37.9964297058        7.5007359464
 Ca        10.2740687768       28.9151399346        9.2347768155
 Ca        13.7488703457       13.4253167087        4.0620725440
 Ca        13.7881548635        4.2057520938        5.7979850568
 Ca        13.7334903224       37.9962956250        7.5006523575
 Ca        13.8021209032       28.9151975382        9.2347083666
 Ca        10.2613404439       42.2528786702        4.1557186260
 Ca        10.3399916539       32.8320515481        5.8057710863
 Ca        10.3727485794       23.5437207919        7.4939448144
 Ca        10.2517822322       14.4528817962        9.3392467204
  O         8.0133547223       27.5703369655        4.0042479535
  O         7.9259295273       18.3976900081        5.7999086926
  O         7.8550454265        9.3240095537        7.6766142939
  O         8.0197293273        0.0045415795        9.2646588201
  H         7.2333173995       27.9068621800        3.9584505921
  H         7.2026149903       18.5823073214        5.8485740673
  H         7.0865945958        9.2030584615        7.5102497333
  H         7.2359214843       -0.0133641115        9.4925047507
  O        11.2685947654       27.6054816752        3.9433902881
  O        11.3536009693       18.5582629809        5.8932132787
  O        11.4612167995        9.3712559457        7.6629893543
  O        11.3145250081        0.0063173317        9.2802189295
  H        10.5392910777       27.8633129167        4.1197985145
  H        10.6336501031       18.5088756709        5.7633981865
  H        10.6649081092        9.1670260457        7.6880990999
  H        10.5289906504       -0.0594647335        9.4925430524
  O         5.9198866079       27.7949806867        4.0464794385
  O         5.8449748084       18.5675484421        5.9097780118
  O         5.7481385233        9.4055239739        7.4721999499
  O         5.8879707031        0.0417044773        9.2462996334
  H         6.6662734743       27.7229592233        4.0732888411
  H         6.5635235592       18.4707705840        5.7511831552
  H         6.5183022241        9.1347341398        7.7505056156
  H         6.6645094324       -0.0714855070        9.5095105598
  O         9.1792306720       27.7696351828        4.1734124851
  O         9.2679200646       18.5513588803        5.8613777028
  O         9.3523721544        9.4152120930        7.7168267480
  O         9.1768650477        0.0334362779        9.2701842212
  H         9.9738640455       27.7807664913        3.8785262328
  H         9.9967408280       18.4980994891        5.8089716201
  H        10.0983509416        9.1491913501        7.4944840633
  H         9.9615528473       -0.0356128255        9.4920338963
  O         7.2079782622       21.8949694608       17.8393566080
  C         7.2986164015       22.8907652988       17.8645858469
  O         7.3857052331       23.8381838311       17.8870698757
     387
 i =        6, E =     -6911.7380003286
  O         0.3043170623        2.6532092311        3.3484670737
  O         0.4733051841       36.8269797467        5.1293331567
  O         0.4476011554       27.4935143285        6.9184949131
  O         0.4610020567       18.2117741167        8.5211160051
  O         0.4427764842       16.0523193198        4.2168591356
  O         0.4688064980        6.9010497226        5.9637257621
  O         0.3504725708       40.6833635566        7.7014669909
  O         0.3551336291       31.4165995007        9.4972873279
  O         0.4122098137       30.3597105574        2.8613008301
  O         0.4806808305       21.0688095903        4.6573427626
  O         0.4604404499       11.9022494273        6.3755514702
  O         0.4502501208        2.6021518459        8.1140598561
  O         3.9045822663       18.7011543033        3.1133749433
  O         3.8814818343        9.6710023042        4.9076339014
  O         3.9115199733        0.1558595452        6.4361861291
  O         3.7373995117       34.3409533577        8.2635810289
  O         3.9235644987        5.3619500666        2.1285862783
  O         3.8092127358       39.4124536209        3.9143946576
  O         3.9087052203       30.0630656306        5.7000439893
  O         3.8834510251       20.8990087120        7.4584017731
  O         3.8895216124       34.5221090935        3.5273913736
  O         3.9037296322       25.1676916287        5.3708850879
  O         3.9034204711       15.8596937706        7.0561076038
  O         3.8663742515        6.6788771998        8.7789786286
  O         6.4139890658       18.7002375500        3.1138786109
  O         6.4369453528        9.6732192771        4.9043516945
  O         6.4071693238        0.1561676777        6.4336269341
  O         6.5811146394       34.3413606923        8.2633619385
  O         6.3948668969        5.3627327311        2.1290928749
  O         6.5091380976       39.4125968221        3.9149428930
  O         6.4103147902       30.0705951871        5.7015384347
  O         6.4349915958       20.9009522818        7.4601373823
  O         6.4289832555       34.5216266420        3.5274299829
  O         6.4144611847       25.1684219092        5.3677613165
  O         6.4152400616       15.8604863596        7.0551729671
  O         6.4525022445        6.6842770492        8.7787442737
  O         3.1352866435        2.6533822656        3.3480424834
  O         2.9660852186       36.8273559164        5.1290650826
  O         2.9921363593       27.4933428141        6.9195199587
  O         2.9784618293       18.2128864255        8.5207449168
  O         2.9965775055       16.0489563826        4.2145017602
  O         2.9696554653        6.8999796974        5.9651770565
  O         3.0893627721       40.6837237672        7.7018266896
  O         3.0847859754       31.4169947677        9.4978455223
  O         3.0288509903       30.3603909343        2.8585152067
  O         2.9586470400       21.0636287998        4.6597272033
  O         2.9787936597       11.9006646856        6.3761005421
  O         2.9893048298        2.6019561260        8.1148777668
  O         1.7203214797        0.3876143516        3.6659431739
  O         1.7201594016       34.5430197878        5.4501719172
  O         1.7201478245       25.2547412801        7.2624523324
  O         1.7201258622       15.8507245586        8.9791700919
  O         1.7198927218        2.3653513295        5.4940363655
  O         1.7200299376       36.4124771293        7.4147444073
  O         1.7200658098       27.1467776691        9.1965949109
  O         1.7201652770       17.7919649144       11.0153953068
  P         1.7196842140        2.2090511964        3.9314972869
  P         1.7197150749       36.0464600981        5.7338797377
  P         1.7200916034       26.8195297618        7.5675585196
  P         1.7197172805       17.6368630798        9.4228394030
 Ca         1.7199071039       38.5951290084        4.1331531331
 Ca         1.7201909970       29.5671271453        5.7952787114
 Ca         1.7193298652       20.1059481087        7.6571259854
 Ca         1.7199984267       10.8807865721        9.3694261465
  O         1.7201199104       17.0617814302        2.0600213407
  O         1.7195343080        7.9031352076        3.8922490046
  O         1.7201199997       41.6333015060        5.5889447369
  O         1.7200657011       32.4107996586        7.4056914258
  O         1.7198786586       14.2893653064        2.8260177838
  O         1.7195423709        5.1718228261        4.5351027202
  O         1.7200382948       39.1138662802        6.2839935700
  O         1.7202928346       29.8105003541        8.0542666158
  P         1.7202506103       15.9475580210        3.1779880079
  P         1.7222366314        6.6948483997        4.9586370373
  P         1.7194807781       40.6580719728        6.8924956645
  P         1.7195988627       31.4075318970        8.7315161129
 Ca         1.7199718614       34.3971774185        2.7592005391
 Ca         1.7198777034       25.2217998067        4.5471982852
 Ca         1.7202780261       16.1766601538        6.3111771123
 Ca         1.7209321620        6.6477261663        8.0882911930
  O         1.7201299387       31.7609942409        4.6247833745
  O         1.7202142240       22.5557973493        6.5225096435
  O         1.7202645997       13.2647605390        8.1644216962
  O         1.7202580567        4.0300843503       10.0293992118
  O         1.7199173470       32.6614223541        2.1354219354
  O         1.7202423248       23.4018509636        3.9193624277
  O         1.7201861279       13.9313057336        5.6435032147
  O         1.7194574917        4.6970032914        7.4112328094
  P         1.7204853049       31.2217265310        2.9087342748
  P         1.7192372200       22.0244095849        4.7808230416
  P         1.7190879154       12.7676367210        6.6651209744
  P         1.7193569972        3.4968451562        8.5206478923
 Ca         1.7199183074       19.2630951938        3.3076149000
 Ca         1.7202053645        9.7015509746        5.1063854686
 Ca         1.7196554729        0.9188770670        7.1471234291
 Ca         1.7200147590       34.4042759590        8.7780274222
  O         5.1590472647       20.9774558109        2.7470907080
  O         5.1586958715       11.9594114730        4.4527498844
  O         5.1588571176        2.4665630146        6.1570547302
  O         5.1588706943       36.5947178637        7.9397941805
  O         5.1589572424       19.1940264097        0.7211288422
  O         5.1585717621       10.0980391442        2.3938077991
  O         5.1588590760        0.5232935824        4.1540636023
  O         5.1589281515       34.6569415594        6.1299472423
  P         5.1590650567       19.4925176056        2.2145367126
  P         5.1606463859        9.9929082661        3.9468381369
  P         5.1594923186        0.9701723056        5.9146874454
  P         5.1592685825       34.8358020862        7.7139239323
 Ca         5.1592235305       25.9691948193        2.3137333180
 Ca         5.1581009001       17.0895862160        3.8388671160
 Ca         5.1594013080        7.4653139855        5.6437740580
 Ca         5.1591002119       41.7635266297        7.6076665717
  O         5.1589612098        4.5329924383        4.2184220590
  O         5.1588555688       38.5511304338        6.0310458211
  O         5.1588022475       29.1808579570        7.8401752654
  O         5.1586785284       19.9297984546        9.5584338438
  O         5.1589230022        7.0953042333        3.6782023044
  O         5.1589225022       41.0421968123        5.3342503339
  O         5.1587004700       31.8655957623        7.1344700487
  O         5.1586380348       22.7175480436        8.8401534499
  P         5.1593646149        5.7224730114        3.0243827210
  P         5.1592646774       39.5797418305        4.7863145268
  P         5.1600092720       30.3591151799        6.6045208515
  P         5.1604700717       21.0608680888        8.4389065640
 Ca         5.1594196634       30.3481019036        3.4725033180
 Ca         5.1596728189       21.0071647731        5.1045391536
 Ca         5.1591097770       11.5381162348        6.9232773097
 Ca         5.1591536204        2.5681192249        8.8865116924
  O         5.1588462525       32.9998216940        1.5562641483
  O         5.1588824921       23.9281969990        3.3244135051
  O         5.1589952800       14.4784184344        5.2436608777
  O         5.1589785214        5.2577895277        7.0376060318
  O         5.1589820081       32.3437819296        4.2542520114
  O         5.1591885426       23.1273236030        6.0537735763
  O         5.1590866963       13.7889558871        7.7915972123
  O         5.1588865835        4.4546136353        9.5023719313
  P         5.1592988013       33.4805519534        3.1078708406
  P         5.1588381168       24.2220110114        4.9102353977
  P         5.1585807645       15.0016545400        6.7043656758
  P         5.1585631138        5.7662488569        8.6282596802
 Ca         5.1590935628        2.6595501103        2.8872683426
 Ca         5.1591027047       36.0920143860        4.5108980387
 Ca         5.1591868896       27.0545685621        6.3251148225
 Ca         5.1592276696       17.9764175376        8.2777351526
 Ca         0.0382392179       42.3110948746        4.2155442113
 Ca        -0.0110339065       32.8253949966        5.8115359559
 Ca        -0.0320424332       23.4840622577        7.4351036886
 Ca         0.0496220142       14.4368079906        9.3572405541
 Ca         3.4465115882       13.4067864065        4.0484358145
 Ca         3.4233151192        4.2503635172        5.8000645690
 Ca         3.4585829049       38.0166973131        7.4453803912
 Ca         3.4168850218       28.9749705234        9.1750250006
 Ca         6.8715506697       13.4062743456        4.0485791320
 Ca         6.8952151870        4.2505405015        5.7999669182
 Ca         6.8595364828       38.0166130814        7.4451652955
 Ca         6.9012627935       28.9750244535        9.1749872905
 Ca         3.4015042950       42.3109996886        4.2153434074
 Ca         3.4507992675       32.8260794346        5.8115184650
 Ca         3.4708330474       23.4840920434        7.4341642885
 Ca         3.3917833831       14.4375272060        9.3572137094
  O         1.1068352876       27.5117861958        4.0198222769
  O         1.0580944618       18.5741957711        5.8341152501
  O         0.9044077060        9.4896872946        7.7710913898
  O         1.1530980761        0.0112302333        9.2038901505
  H         0.3515272905       27.9669773822        3.8968653198
  H         0.3206385936       18.4305253789        5.8079465343
  H         0.2269692396        9.0803776677        7.4346790871
  H         0.3514401187       -0.0142349397        9.5530060034
  O         4.3322374397       27.5499993945        3.8822972705
  O         4.4367409585       18.3037491474        5.8154054055
  O         4.6141016628        9.4290730870        7.7425982274
  O         4.4285350778       -0.0013942703        9.2244735861
  H         3.6554145785       27.9190335185        4.1786288470
  H         3.7709343523       18.6569361353        5.8135178068
  H         3.7693410221        9.0940151827        7.7079968336
  H         3.6297072653       -0.0529961851        9.5499762610
  O        12.8546332424       27.7843798530        4.0393169897
  O        12.7769672186       18.2931669569        5.8296903788
  O        12.6541916934        9.4451358227        7.4176871045
  O        12.7970381156        0.0170717386        9.1899176355
  H        13.5929089664       27.7084313525        4.0517209336
  H        13.4244739007       18.6755565220        5.8074765929
  H        13.3996189616        9.1008453766        7.8151163528
  H        13.5421744770       -0.1034706522        9.5675912416
  O         2.3097853355       27.7650063923        4.2296882808
  O         2.3841668698       18.3603559680        5.8243178307
  O         2.5212855493        9.3218790138        7.7347804295
  O         2.2787342572        0.0090546755        9.2110923131
  H         3.1102925986       27.7749649134        3.8218027472
  H         3.1064743672       18.5282200257        5.8127075741
  H         3.2638117810        9.2127966846        7.4596764866
  H         3.0924889307       -0.0144588724        9.5517103653
  O         7.1833266635        2.6531169137        3.3484708859
  O         7.3523011130       36.8269690145        5.1292918677
  O         7.3263562700       27.4935285766        6.9185112217
  O         7.3401772840       18.2120550952        8.5210975822
  O         7.3214927891       16.0485119987        4.2142715916
  O         7.3488309043        6.8997687342        5.9646377475
  O         7.2290164219       40.6833141417        7.7015333632
  O         7.2337449099       31.4166069381        9.4973876831
  O         7.2912843597       30.3597388566        2.8616194722
  O         7.3597801042       21.0648572600        4.6596710522
  O         7.3397364959       11.9014057107        6.3761253902
  O         7.3291821308        2.6023698782        8.1153613744
  O        10.7834886606       18.6991093419        3.1142522198
  O        10.7604069042        9.6686284897        4.9071440381
  O        10.7904971195        0.1556138611        6.4359798503
  O        10.6164027060       34.3410307642        8.2635782869
  O        10.8020473510        5.3633070851        2.1285763906
  O        10.6881678026       39.4124437325        3.9143664888
  O        10.7877203189       30.0631970244        5.6999546911
  O        10.7626392639       20.9007295662        7.4599409848
  O        10.7685316525       34.5220680183        3.5274158312
  O        10.7827549516       25.1675969507        5.3703454870
  O        10.7824500020       15.8610504888        7.0553267944
  O        10.7448255411        6.6809577503        8.7786530235
  O        13.2929843396       18.7016995217        3.1132670720
  O        13.3159543720        9.6708452041        4.9041987617
  O        13.2861834254        0.1561321229        6.4337188092
  O        13.4601083828       34.3414320492        8.2633577757
  O        13.2745225848        5.3633304512        2.1292756031
  O        13.3882518274       39.4125671054        3.9149494175
  O        13.2893355376       30.0706492444        5.7015378227
  O        13.3139763004       20.8992423949        7.4588001443
  O        13.3079970751       34.5216208186        3.5274555661
  O        13.2936260072       25.1685926531        5.3663421917
  O        13.2943612675       15.8591387980        7.0559659357
  O        13.3326454761        6.6859758559        8.7785842838
  O        10.0145272788        2.6533757216        3.3480156601
  O         9.8450718845       36.8273945720        5.1291025212
  O         9.8709613006       27.4934060572        6.9195043051
  O         9.8573250043       18.2110498960        8.5209008416
  O         9.8759350031       16.0539683818        4.2194417475
  O         9.8499398655        6.9012687523        5.9641139576
  O         9.9679263477       40.6838220398        7.7017941233
  O         9.9634950063       31.4169930052        9.4977358515
  O         9.9080598203       30.3603723482        2.8583278699
  O         9.8375199557       21.0693513515        4.6567582675
  O         9.8580740064       11.9015380625        6.3755539407
  O         9.8682670938        2.6018214196        8.1132390950
  O         8.5993394533        0.3875676752        3.6657976212
  O         8.5991308127       34.5430295514        5.4501717391
  O         8.5989468349       25.2548500794        7.2626754812
  O         8.5992712438       15.8499464398        8.9791315610
  O         8.5989421133        2.3653691317        5.4940633250
  O         8.5990932475       36.4125133183        7.4148110967
  O         8.5987786233       27.1469167049        9.1969008641
  O         8.5991615205       17.7919567285       11.0155026633
  P         8.5985778115        2.2090674509        3.9316533604
  P         8.5987679329       36.0464459473        5.7338656169
  P         8.5994735969       26.8193970353        7.5675525768
  P         8.5987663440       17.6377871441        9.4227777964
 Ca         8.5989104579       38.5950997392        4.1332008685
 Ca         8.5992398201       29.5670613079        5.7952870733
 Ca         8.5995630131       20.1061466937        7.6562709027
 Ca         8.5992476367       10.8804882957        9.3693883660
  O         8.5993051343       17.0614328034        2.0601019560
  O         8.5999339127        7.9028486042        3.8927756992
  O         8.5992021282       41.6332244103        5.5889389657
  O         8.5991872653       32.4107921253        7.4057018697
  O         8.5993739890       14.2895572334        2.8264886477
  O         8.5992886321        5.1700611092        4.5353239596
  O         8.5991135011       39.1139595007        6.2839866883
  O         8.5990041012       29.8106225124        8.0542949927
  P         8.5980180050       15.9477352761        3.1778247524
  P         8.5961050536        6.6956509144        4.9581755596
  P         8.5988749836       40.6580909671        6.8921922291
  P         8.5988888721       31.4075324282        8.7313372644
 Ca         8.5989270863       34.3971557028        2.7592068604
 Ca         8.5988760834       25.2216693178        4.5472865495
 Ca         8.5984457504       16.1765782905        6.3113507629
 Ca         8.5981516239        6.6477427522        8.0884230515
  O         8.5991074809       31.7610064902        4.6248049365
  O         8.5989236574       22.5560123355        6.5224694213
  O         8.5993428596       13.2647612459        8.1643339780
  O         8.5986766072        4.0304238079       10.0312425665
  O         8.5990707714       32.6614608274        2.1354253952
  O         8.5990070238       23.4021471216        3.9192215841
  O         8.5990509735       13.9313572910        5.6434757555
  O         8.5994280427        4.6968303871        7.4112952481
  P         8.5992942742       31.2212496599        2.9087158684
  P         8.5993108501       22.0239972977        4.7808085573
  P         8.5987770896       12.7676311045        6.6651625472
  P         8.5997001557        3.4964838093        8.5185229909
 Ca         8.5988847445       19.2634532536        3.3078478611
 Ca         8.5975863021        9.7015051602        5.1063771437
 Ca         8.5989771430        0.9189813667        7.1471786873
 Ca         8.5989336291       34.4042633941        8.7780293816
  O        12.0374138161       20.9771486085        2.7486056441
  O        12.0377059038       11.9586215002        4.4526518803
  O        12.0380619799        2.4665543525        6.1568207058
  O        12.0378769124       36.5946521047        7.9397897189
  O        12.0378768779       19.1939035085        0.7215262605
  O        12.0376080757       10.0976881519        2.3939858074
  O        12.0377819109        0.5232838189        4.1539767280
  O        12.0379313160       34.6570174879        6.1299138386
  P        12.0386385560       19.4928315914        2.2121035763
  P        12.0395312629        9.9934705725        3.9460255288
  P        12.0384295742        0.9702825177        5.9147679211
  P        12.0382723118       34.8358505069        7.7141114256
 Ca        12.0385520976       25.9689201281        2.3134575405
 Ca        12.0389839425       17.0896167181        3.8387751529
 Ca        12.0384459082        7.4650307732        5.6434310393
 Ca        12.0381226938       41.7637351344        7.6075096329
  O        12.0378219986        4.5323623007        4.2179784042
  O        12.0378411844       38.5511793153        6.0310680406
  O        12.0378011276       29.1814014332        7.8394882164
  O        12.0379682088       19.9293680504        9.5584641195
  O        12.0379188806        7.0945243983        3.6841760840
  O        12.0379050749       41.0421365079        5.3342530729
  O        12.0376881561       31.8655958059        7.1343316878
  O        12.0383444664       22.7174586339        8.8403953904
  P        12.0386482366        5.7283682806        3.0249799710
  P        12.0382692607       39.5797707182        4.7864831464
  P        12.0390524835       30.3590663505        6.6047476913
  P        12.0372243212       21.0610818543        8.4388799540
 Ca        12.0384552071       30.3481686201        3.4729418509
 Ca        12.0375112485       21.0071113830        5.1046760650
 Ca        12.0381605633       11.5381158101        6.9232917924
 Ca        12.0380544250        2.5683160270        8.8864554977
  O        12.0378347978       32.9998356313        1.5563044371
  O        12.0379253075       23.9284806243        3.3247925838
  O        12.0377771975       14.4783785805        5.2436850763
  O        12.0379674898        5.2578141814        7.0369946376
  O        12.0379827358       32.3437520227        4.2542525173
  O        12.0381220991       23.1274876095        6.0533425088
  O        12.0376520032       13.7889505036        7.7922411337
  O        12.0377142890        4.4559231337        9.5020365945
  P        12.0382777938       33.4805568375        3.1077758152
  P        12.0375250615       24.2216667206        4.9097963978
  P        12.0389468045       15.0016525008        6.7042030015
  P        12.0372368420        5.7655888354        8.6299656246
 Ca        12.0379859846        2.6592755741        2.8872083544
 Ca        12.0381043279       36.0920240199        4.5108590903
 Ca        12.0382307046       27.0543921133        6.3256057393
 Ca        12.0379863591       17.9766838560        8.2777244711
 Ca         6.9172013677       42.3111570314        4.2155850517
 Ca         6.8680067017       32.8254365159        5.8115206146
 Ca         6.8480665782       23.4837268493        7.4340971720
 Ca         6.9268754784       14.4367252743        9.3573854133
 Ca        10.3252983315       13.4064399702        4.0485695301
 Ca        10.3017638485        4.2483015257        5.8007003799
 Ca        10.3374641414       38.0166314096        7.4450134151
 Ca        10.2960885684       28.9748174272        9.1750993229
 Ca        13.7509060931       13.4067530049        4.0486509687
 Ca        13.7743464325        4.2483656017        5.8006252805
 Ca        13.7386595498       38.0165614953        7.4448299079
 Ca        13.7800382866       28.9748750308        9.1750308740
 Ca        10.2805632559       42.3111246050        4.2153961186
 Ca        10.3298248130       32.8259058280        5.8115417252
 Ca        10.3502926796       23.4840432993        7.4344283110
 Ca        10.2689361472       14.4372084063        9.3572799638
  O         7.9861438847       27.5106594729        4.0157507995
  O         7.9207975904       18.3380125155        5.8063139670
  O         7.7953679340        9.3580953553        7.7362917865
  O         8.0367902975        0.0029647696        9.2049813276
  H         7.2311876790       27.9665396725        3.9046696035
  H         7.2236733850       18.6419848140        5.8305352331
  H         7.0425155259        9.2043018750        7.4505722407
  H         7.2250458156       -0.0095806442        9.5521822432
  O        11.2089172728       27.5458041827        3.8837127955
  O        11.3434179180       18.5716185522        5.9528907713
  O        11.4833456942        9.4309334383        7.6970248278
  O        11.3052575754        0.0008658472        9.2205414369
  H        10.5395237627       27.9229904093        4.1794760071
  H        10.6226661066       18.5080865589        5.7421091199
  H        10.6467900533        9.1073485531        7.7477765924
  H        10.5100176197       -0.0587603914        9.5522205449
  O         5.9795641005       27.7763994001        4.0385334195
  O         5.8640750623       18.6044339078        5.9694555044
  O         5.7794203685        9.4652014664        7.4125224573
  O         5.9203464271        0.0215513259        9.1866221408
  H         6.7080875883       27.7300795435        4.0564209929
  H         6.5699766497       18.4836827495        5.6915056626
  H         6.5026899956        9.0750566473        7.8101831082
  H         6.6627897490       -0.1085222979        9.5691880524
  O         9.1842577826       27.7674341324        4.2330899777
  O         9.2522852483       18.5451075787        5.8517680541
  O         9.4120496470        9.4748895856        7.7765042405
  O         9.1560747443        0.0179288720        9.2105067286
  H         9.9889183205       27.7725693820        3.8188487402
  H         9.9889031990       18.5027548972        5.8118790886
  H        10.0821503890        9.0895138575        7.4348065708
  H         9.9738038108       -0.0193354237        9.5517113889
  O         7.2359396912       21.9546469534       17.8404476187
  C         7.2939814738       22.8552489589       17.8627746259
  O         7.3608455541       23.7785063385       17.8855190369
     387
 i =        7, E =     -6912.3961947328
  O         0.3186137214        2.6599019719        3.3585256929
  O         0.4727175963       36.8152696493        5.1355424938
  O         0.4544560084       27.4959317779        6.9196196703
  O         0.4626927065       18.2219884519        8.5228736855
  O         0.4480233393       16.0620355357        4.2047970296
  O         0.4665544930        6.8938957256        5.9536420901
  O         0.3627773949       40.6932641357        7.6992779134
  O         0.3672666007       31.4274189233        9.4894153548
  O         0.4249260631       30.3716293684        2.8497827621
  O         0.4781807068       21.0823306562        4.6466169873
  O         0.4656208905       11.9005639437        6.3738445085
  O         0.4538518947        2.6110337997        8.1240067184
  O         3.9031715097       18.7135836816        3.1244037872
  O         3.8879492915        9.6628613113        4.9291176088
  O         3.9135486485        0.1682159841        6.4459429865
  O         3.7483066155       34.3313493963        8.2593209565
  O         3.9214964813        5.3726989113        2.1382846214
  O         3.8222074181       39.4065842824        3.9216932091
  O         3.9087353917       30.0745361054        5.7016697165
  O         3.8886011057       20.8943373964        7.4641040612
  O         3.8911542852       34.5106538254        3.5153594733
  O         3.9038568872       25.1551146864        5.3598854020
  O         3.9069751885       15.8620680618        7.0483926560
  O         3.8780327149        6.6657196883        8.7898836416
  O         6.4156419820       18.7125168191        3.1267359066
  O         6.4304901030        9.6651571546        4.9194566002
  O         6.4051358598        0.1685011516        6.4433277810
  O         6.5700498676       34.3317575722        8.2591276042
  O         6.3970190552        5.3734473401        2.1386987914
  O         6.4961704886       39.4067004948        3.9221162145
  O         6.4100194954       30.0823179007        5.7026101273
  O         6.4297568652       20.8954210276        7.4652709685
  O         6.4274303211       34.5101597140        3.5154078733
  O         6.4146367334       25.1553946610        5.3567689581
  O         6.4118126614       15.8623906765        7.0478635052
  O         6.4407720046        6.6714406902        8.7897454717
  O         3.1209538103        2.6600793168        3.3582083263
  O         2.9666303681       36.8156291789        5.1353139198
  O         2.9851368987       27.4959049851        6.9201035622
  O         2.9767445555       18.2231407005        8.5224570913
  O         2.9913558429       16.0584522967        4.2023110672
  O         2.9719581914        6.8934213716        5.9546059179
  O         3.0770153137       40.6936287037        7.6996027796
  O         3.0726143002       31.4277859055        9.4898515249
  O         3.0160672211       30.3719608711        2.8468994515
  O         2.9612257442       21.0767891526        4.6491560178
  O         2.9738110366       11.8994678638        6.3741102072
  O         2.9855975903        2.6108712982        8.1248557484
  O         1.7201996811        0.3620902401        3.6679455273
  O         1.7201048552       34.5475081607        5.4502168866
  O         1.7201060607       25.2639807539        7.2515303804
  O         1.7201333955       15.8639833882        8.9867582285
  O         1.7199367932        2.3771549689        5.4988929850
  O         1.7200190929       36.4018498877        7.4014374298
  O         1.7200753560       27.1356279187        9.1837430732
  O         1.7201054576       17.8023227089       11.0376281709
  P         1.7196923085        2.1967224714        3.9395504229
  P         1.7197014379       36.0445790953        5.7364408980
  P         1.7198790974       26.8187216874        7.5607659447
  P         1.7196851333       17.6251072253        9.4124692676
 Ca         1.7199302741       38.5979750290        4.1238728228
 Ca         1.7198830142       29.6081269283        5.7913727057
 Ca         1.7195665911       20.1021960295        7.6467517529
 Ca         1.7200444037       10.8688735770        9.3605132410
  O         1.7200824904       17.0498480122        2.0698390269
  O         1.7196709564        7.9128033894        3.8859647574
  O         1.7200803838       41.6425954921        5.6028979314
  O         1.7200495837       32.4081656339        7.4049414645
  O         1.7199386057       14.2751425966        2.8156702302
  O         1.7196952994        5.1824724828        4.5251094144
  O         1.7200305928       39.1259735128        6.2792242593
  O         1.7201767065       29.8245890462        8.0505119347
  P         1.7199991014       15.9552963900        3.1843124286
  P         1.7214659602        6.6971271814        4.9625438676
  P         1.7195228534       40.6542701755        6.8815665706
  P         1.7196088123       31.4057166972        8.7185673370
 Ca         1.7199825463       34.2865090154        2.7579898455
 Ca         1.7200304447       25.1764377009        4.5414111201
 Ca         1.7200111148       16.1851851107        6.3133616098
 Ca         1.7205055931        6.5370577633        8.0928688525
  O         1.7200981696       31.7655592203        4.6143084707
  O         1.7201418398       22.5435316113        6.5093277896
  O         1.7201964858       13.2635221350        8.1558853225
  O         1.7201103458        4.0196331211       10.0154561153
  O         1.7199410879       32.6730350664        2.1259114102
  O         1.7201787954       23.4167654935        3.9130575269
  O         1.7200993815       13.9346059214        5.6534650808
  O         1.7196894924        4.6981053225        7.4215227274
  P         1.7203366572       31.2326300321        2.9196935522
  P         1.7193402902       22.0249085121        4.7929815264
  P         1.7191985142       12.7673192064        6.6666829463
  P         1.7194630761        3.5073285926        8.5150897183
 Ca         1.7198723161       19.2517496462        3.2147722333
 Ca         1.7201297568        9.5908825715        5.0384585037
 Ca         1.7197915042        0.9534244121        7.1374517127
 Ca         1.7200032501       34.3269621994        8.7876703319
  O         5.1590971249       20.9739355429        2.7363115414
  O         5.1588049737       11.9867806540        4.4403760305
  O         5.1589071458        2.4635859417        6.1625328169
  O         5.1589150459       36.5809737299        7.9447318882
  O         5.1590226743       19.1922744330        0.7335244553
  O         5.1587979686       10.0879781189        2.3586539415
  O         5.1589104841        0.5346815792        4.1505556592
  O         5.1589516493       34.6442796807        6.1264788207
  P         5.1590153665       19.4920278256        2.2280102931
  P         5.1601643057       10.0029800236        3.9589234570
  P         5.1594097090        0.9708229137        5.9105181130
  P         5.1592869465       34.8395940243        7.7045290839
 Ca         5.1595699962       25.9341409149        2.3035403678
 Ca         5.1584439208       17.0876859361        3.7738083159
 Ca         5.1591668284        7.4422313104        5.6279046780
 Ca         5.1590496193       41.7749977972        7.6133682959
  O         5.1589871960        4.5442294251        4.2209080521
  O         5.1589069404       38.5485326971        6.0211501626
  O         5.1588704561       29.1945188273        7.8262037496
  O         5.1587895833       19.9414625797        9.5518481154
  O         5.1589368902        7.0921961766        3.6655951602
  O         5.1589530444       41.0387460692        5.3423318452
  O         5.1588106815       31.8546094123        7.1313687922
  O         5.1588159708       22.7229193405        8.8493050322
  P         5.1593455438        5.7098080431        3.0258367278
  P         5.1592808257       39.5767068273        4.7953843769
  P         5.1597834559       30.3584596299        6.6058170049
  P         5.1601487714       21.0557746313        8.4361944476
 Ca         5.1591460826       30.4377825599        3.4824832900
 Ca         5.1592207717       21.0142095691        5.0607552645
 Ca         5.1589090427       11.5467010493        6.9023731461
 Ca         5.1591376710        2.6387144100        8.8882869019
  O         5.1589078149       33.0067260076        1.5668532463
  O         5.1589016347       23.9245926177        3.3156779429
  O         5.1589887357       14.4855346495        5.2535211260
  O         5.1589718897        5.2537548530        7.0396272918
  O         5.1589786754       32.3357225791        4.2427678490
  O         5.1591156655       23.1162678353        6.0410886570
  O         5.1590094117       13.7969436388        7.7820436563
  O         5.1589228912        4.4671791649        9.5061099722
  P         5.1593046319       33.4797416283        3.1127486321
  P         5.1590101115       24.2226172324        4.9122585431
  P         5.1588572471       15.0046136557        6.7122529194
  P         5.1588574906        5.7591503590        8.6171033436
 Ca         5.1590616605        2.7702185133        2.8876587672
 Ca         5.1590787973       36.0584364740        4.5066725288
 Ca         5.1591532677       27.0496140576        6.3117490661
 Ca         5.1592245978       17.9901401977        8.3143438284
 Ca         0.0289453860       42.3022952242        4.2341590628
 Ca        -0.0052923610       32.8353192606        5.8140344548
 Ca        -0.0208715094       23.4888849897        7.4444740976
 Ca         0.0388095107       14.4259714239        9.3650557978
 Ca         3.4459839987       13.3959607949        4.0428806045
 Ca         3.4300781357        4.2417918106        5.8019238754
 Ca         3.4558836564       38.0264008296        7.4536545293
 Ca         3.4271358590       28.9868478343        9.1437212488
 Ca         6.8720442896       13.3953866221        4.0429919522
 Ca         6.8882717630        4.2419788824        5.8018359941
 Ca         6.8621903935       38.0263505441        7.4534262991
 Ca         6.8909381915       28.9870016783        9.1437601254
 Ca         3.4108918118       42.3021934372        4.2337217339
 Ca         3.4451367669       32.8360510466        5.8140235112
 Ca         3.4596732232       23.4891201140        7.4434012340
 Ca         3.4026428259       14.4267400501        9.3649664269
  O         1.1142412644       27.4011177927        4.0257655325
  O         1.0617929907       18.5707293227        5.8221960859
  O         0.8428776283        9.6003556977        7.8219806972
  O         1.1432104855        0.0059343471        9.1455525362
  H         0.3478075520       28.0776457853        3.8993500993
  H         0.3332813495       18.4329798488        5.8149334127
  H         0.2460183230        9.0098533023        7.3620037662
  H         0.3503423781       -0.0059143829        9.6100427343
  O         4.2215690366       27.4402219131        3.8551409650
  O         4.4412906718       18.1959533132        5.8139804500
  O         4.6167909976        9.4878278625        7.7524883845
  O         4.4469480296       -0.0023358228        9.2042536094
  H         3.6786045496       27.9667609612        4.2181116460
  H         3.7843807154       18.7026288870        5.8150017243
  H         3.7670874602        9.0349807645        7.7065414145
  H         3.6579096815       -0.0433278914        9.5998695082
  O        12.9207159158       27.7736530944        4.0380432711
  O        12.7696725824       18.1824985539        5.8193962250
  O        12.6513104039        9.5236396736        7.3383156426
  O        12.7750543409        0.0069102381        9.1162081087
  H        13.5789323324       27.7125285962        4.0442600777
  H        13.4146964680       18.7611982014        5.8137513265
  H        13.4080783549        9.0680939022        7.9257847559
  H        13.5236049861       -0.0982909895        9.6522989498
  O         2.3053355722       27.7640086833        4.3382302518
  O         2.3781443223       18.3413086820        5.8184748696
  O         2.5309684627        9.3118738477        7.7381972280
  O         2.2882750538        0.0045493939        9.1636283608
  H         3.1188874135       27.7681290491        3.7111343441
  H         3.0961127241       18.5197933409        5.8160403308
  H         3.2494222646        9.2270256678        7.4288894511
  H         3.0879737298       -0.0074244823        9.6084768860
  O         7.1976236819        2.6596886972        3.3585210080
  O         7.3517172970       36.8152600781        5.1355104266
  O         7.3332609001       27.4959362147        6.9195959474
  O         7.3417817747       18.2222479722        8.5230245104
  O         7.3268489603       16.0580616823        4.2021533094
  O         7.3464359235        6.8933204373        5.9541942668
  O         7.2413389028       40.6932202867        7.6993296946
  O         7.2458797477       31.4274279644        9.4894877269
  O         7.3040146401       30.3716095809        2.8501198346
  O         7.3571426526       21.0779834063        4.6490683076
  O         7.3446609332       11.9000683935        6.3741728256
  O         7.3327811015        2.6111884610        8.1253275425
  O        10.7819590328       18.7114493874        3.1268398532
  O        10.7669491176        9.6604523349        4.9278379499
  O        10.7925478428        0.1679800970        6.4457257600
  O        10.6272820778       34.3314281556        8.2593191296
  O        10.8001169008        5.3741032924        2.1382602160
  O        10.7011672133       39.4065724374        3.9216665863
  O        10.7877280197       30.0747037743        5.7016002002
  O        10.7678731960       20.8952344042        7.4650461835
  O        10.7701589167       34.5106110923        3.5153826687
  O        10.7828519002       25.1550716085        5.3593298902
  O        10.7858617855       15.8627965426        7.0479814096
  O        10.7566692200        6.6679722186        8.7896914526
  O        13.2944473022       18.7141466424        3.1246347179
  O        13.3094862922        9.6627577280        4.9192633687
  O        13.2841486335        0.1684720937        6.4434295279
  O        13.4490644391       34.3318274877        8.2591248847
  O        13.2764809475        5.3741287650        2.1388369201
  O        13.3752832046       39.4066772660        3.9221244894
  O        13.2890297089       30.0823485691        5.7025963455
  O        13.3089511872       20.8944796668        7.4644529615
  O        13.3064325419       34.5101531005        3.5154309768
  O        13.2937607538       25.1554785681        5.3553107396
  O        13.2908070267       15.8617082983        7.0482502709
  O        13.3204089164        6.6732140914        8.7896385859
  O        10.0001786113        2.6600247654        3.3581710932
  O         9.8456197985       36.8156704356        5.1353388794
  O         9.8640024279       27.4959437901        6.9201072240
  O         9.8556189395       18.2211720838        8.5229913901
  O         9.8704700935       16.0637766234        4.2074280660
  O         9.8519723405        6.8940758806        5.9539464421
  O         9.9555582337       40.6937294631        7.6995433076
  O         9.9513273247       31.4277915204        9.4897617106
  O         9.8952839566       30.3719207706        2.8467081321
  O         9.8400735335       21.0828489900        4.6460128206
  O         9.8528453410       11.9000442921        6.3737802878
  O         9.8645423497        2.6107694952        8.1231680631
  O         8.5992145770        0.3619905157        3.6678479916
  O         8.5990904561       34.5475186938        5.4502169168
  O         8.5989772630       25.2640550957        7.2517765490
  O         8.5991173302       15.8631020804        8.9867406892
  O         8.5989765313        2.3771673002        5.4988999694
  O         8.5990685194       36.4018936148        7.4015134351
  O         8.5989143281       27.1357789069        9.1840754425
  O         8.5991000850       17.8023180597       11.0378697074
  P         8.5985609144        2.1967433229        3.9396796217
  P         8.5987372381       36.0445629137        5.7364305085
  P         8.5992075010       26.8186174572        7.5607707769
  P         8.5986987920       17.6261319231        9.4123701378
 Ca         8.5989252402       38.5979557620        4.1239114741
 Ca         8.5989354697       29.6079329895        5.7913960492
 Ca         8.5992827696       20.1023079727        7.6458741693
 Ca         8.5990249273       10.8686767915        9.3605871041
  O         8.5991784058       17.0494895027        2.0699073976
  O         8.5996454710        7.9123665214        3.8863804979
  O         8.5991380396       41.6425487081        5.6029061313
  O         8.5991201195       32.4081616710        7.4049407344
  O         8.5992247724       14.2758139728        2.8161691176
  O         8.5991975497        5.1807546030        4.5253074877
  O         8.5990775816       39.1260686332        6.2792118355
  O         8.5990044793       29.8247253302        8.0505080595
  P         8.5983365846       15.9553637179        3.1842121568
  P         8.5968694395        6.6975365084        4.9622146797
  P         8.5988313563       40.6542575982        6.8812510664
  P         8.5988561896       31.4057253913        8.7183788470
 Ca         8.5989488997       34.2864872997        2.7579998816
 Ca         8.5990434137       25.1761685818        4.5415038184
 Ca         8.5987981927       16.1852425669        6.3135623787
 Ca         8.5984345340        6.5370743492        8.0929694847
  O         8.5990888292       31.7655552754        4.6143071280
  O         8.5989421031       22.5437509531        6.5092460472
  O         8.5991347512       13.2635046559        8.1557949485
  O         8.5988332523        4.0199117390       10.0171878949
  O         8.5990402373       32.6732593374        2.1259172268
  O         8.5990076310       23.4174090970        3.9129490328
  O         8.5990333999       13.9346549687        5.6534311901
  O         8.5992553864        4.6980093248        7.4215537245
  P         8.5991869327       31.2321108873        2.9195940426
  P         8.5991249085       22.0246708966        4.7929856958
  P         8.5987565255       12.7672979891        6.6667313707
  P         8.5993946618        3.5070329605        8.5131056438
 Ca         8.5990633253       19.2520408317        3.2152787732
 Ca         8.5982113683        9.5908367572        5.0382867905
 Ca         8.5989764764        0.9535792741        7.1375376612
 Ca         8.5989448485       34.3269142129        8.7876680545
  O        12.0375675457       20.9737268792        2.7378279800
  O        12.0378027121       11.9850168434        4.4402521668
  O        12.0380309363        2.4635760631        6.1623778287
  O        12.0379148760       36.5809067693        7.9447381912
  O        12.0379273586       19.1922430695        0.7337028824
  O        12.0378113013       10.0876344448        2.3589253046
  O        12.0378679031        0.5346741473        4.1503866075
  O        12.0379512219       34.6443564162        6.1264585098
  P        12.0386526643       19.4922252984        2.2258399766
  P        12.0391179738       10.0040978981        3.9581724107
  P        12.0383554361        0.9708924740        5.9105889102
  P        12.0382933860       34.8396072204        7.7047026086
 Ca        12.0384486351       25.9331788105        2.3032939589
 Ca        12.0386212145       17.0880266442        3.7737624256
 Ca        12.0382359843        7.4414274585        5.6269604983
 Ca        12.0380511517       41.7752606628        7.6132542106
  O        12.0378724267        4.5436134106        4.2205705897
  O        12.0378932813       38.5485750267        6.0211870903
  O        12.0378602187       29.1950741223        7.8254950802
  O        12.0379777460       19.9410208267        9.5518799460
  O        12.0379729663        7.0916151425        3.6717507658
  O        12.0379366160       41.0386960089        5.3423443826
  O        12.0378020090       31.8546258208        7.1312752063
  O        12.0381892560       22.7229219136        8.8495653827
  P        12.0385635723        5.7156746024        3.0262921013
  P        12.0383034342       39.5767429426        4.7954936627
  P        12.0388211788       30.3584064220        6.6060412839
  P        12.0375292048       21.0559223273        8.4361488746
 Ca        12.0382143749       30.4380269115        3.4829630678
 Ca        12.0379312282       21.0138210336        5.0611058156
 Ca        12.0379595432       11.5467480868        6.9025018658
 Ca        12.0380832190        2.6393205704        8.8882303746
  O        12.0378943569       33.0067426496        1.5668911103
  O        12.0379257864       23.9255144353        3.3160254286
  O        12.0378618280       14.4855010643        5.2535146885
  O        12.0379659386        5.2537431832        7.0392784081
  O        12.0379728065       32.3357019831        4.2427629485
  O        12.0380212855       23.1164926381        6.0406364765
  O        12.0378321501       13.7969709012        7.7827218339
  O        12.0377876334        4.4684795042        9.5059514087
  P        12.0382981177       33.4797441635        3.1126707403
  P        12.0378455645       24.2223650305        4.9118799656
  P        12.0387050713       15.0045570990        6.7122061845
  P        12.0377022409        5.7588243061        8.6187439041
 Ca        12.0380096210        2.7699439771        2.8874978828
 Ca        12.0380856693       36.0584568811        4.5066456391
 Ca        12.0381511843       27.0495258673        6.3121334877
 Ca        12.0378835899       17.9912234317        8.3141505640
 Ca         6.9079089159       42.3023616567        4.2342242922
 Ca         6.8737253083       32.8353522283        5.8140250757
 Ca         6.8592494609       23.4880403509        7.4434076139
 Ca         6.9160245446       14.4259277593        9.3650782545
 Ca        10.3248932650       13.3955383927        4.0429934398
 Ca        10.3086947962        4.2396602055        5.8023059064
 Ca        10.3347829924       38.0263441410        7.4532756255
 Ca        10.3062802443       28.9863914849        9.1438453097
 Ca        13.7512532544       13.3958829510        4.0430344036
 Ca        13.7673717843        4.2397179199        5.8022725784
 Ca        13.7413028423       38.0263029961        7.4530985198
 Ca        13.7697974512       28.9866057179        9.1439301906
 Ca        10.2899309152       42.3023233716        4.2338134764
 Ca        10.3241548511       32.8358613984        5.8140441483
 Ca        10.3390969967       23.4887230930        7.4437825268
 Ca        10.2797229057       14.4263913449        9.3650505208
  O         7.9931828814       27.3999910699        4.0241382859
  O         7.9198249857       18.2841857428        5.8125384789
  O         7.7718868946        9.3492092943        7.7413658188
  O         8.0244490988        0.0031424808        9.1487121874
  H         7.2280579671       28.0772080756        3.9074303452
  H         7.2405183888       18.6623733217        5.8207123407
  H         7.0608506304        9.2151985359        7.4028120339
  H         7.2250510984       -0.0047326483        9.6070089088
  O        11.0982488697       27.4355995084        3.8651123244
  O        11.3440111951       18.5641747346        5.9578908283
  O        11.4839222481        9.4941735351        7.6908636728
  O        11.3241022191       -0.0010637315        9.1944321221
  H        10.5625546130       27.9771394808        4.2196276645
  H        10.6427286725       18.5076835860        5.7448790761
  H        10.6409055291        9.0827383106        7.7689368253
  H        10.5378374208       -0.0499472472        9.6065057900
  O         6.0552630324       27.7675247333        4.0364234912
  O         5.8656784100       18.5984882758        6.0010289051
  O         5.7724783958        9.5756644973        7.3242783628
  O         5.8982107929        0.0111954762        9.1077826154
  H         6.6939618457       27.7365808365        4.0496121593
  H         6.5498516447       18.4922656046        5.6912274724
  H         6.5118567018        8.9866703996        7.9208515113
  H         6.6439777725       -0.1038222843        9.6571469168
  O         9.1789262793       27.7654332269        4.3437583807
  O         9.2464273005       18.5372959904        5.8403902090
  O         9.4659185170        9.5855579886        7.8344079851
  O         9.1670306997        0.0072652178        9.1620146405
  H         9.9981271558       27.7677974278        3.7081803371
  H         9.9757273512       18.5063668306        5.8160133003
  H        10.0666287483        9.0319716869        7.3658774209
  H         9.9695754095       -0.0080668159        9.6080540102
  O         7.2200952721       21.9290355917       17.8387576541
  C         7.2970408472       22.9034911041       17.8634018469
  O         7.3723148189       23.7234602300       17.8853911288
     387
 i =        8, E =     -6913.3913810549
  O         0.3055592344        2.6138867378        3.4222547634
  O         0.4648827266       36.7645808731        5.1747659490
  O         0.5012005520       27.5135667974        6.9272125087
  O         0.4618684530       18.2920245014        8.4915148881
  O         0.4796684286       16.0894494940        4.1481692194
  O         0.4458289086        6.8487667048        5.8879859706
  O         0.3718058898       40.6884759019        7.6873668140
  O         0.3801256206       31.4185304610        9.4345979606
  O         0.5018934609       30.4466351456        2.7819397933
  O         0.4528295336       21.1405060682        4.5929618469
  O         0.4986084853       11.8849667789        6.3593287580
  O         0.4770679224        2.6683654556        8.1907102011
  O         3.8857128143       18.7724032893        3.1637859579
  O         3.9229972979        9.7030785247        4.9703447413
  O         3.9239116664        0.1900357600        6.5072825869
  O         3.7253596331       34.3477579721        8.2362426685
  O         3.9050443656        5.3915776405        2.2031057915
  O         3.8546366098       39.3635951274        3.9681847810
  O         3.9025997259       30.1202341019        5.7094915658
  O         3.9204286466       20.8614330646        7.4996535899
  O         3.8938994692       34.5090891374        3.4408136309
  O         3.8978303138       25.0745728809        5.3444922387
  O         3.9320740256       15.8789021307        6.9921438521
  O         3.9525214746        6.5981250163        8.8632770266
  O         6.4340762632       18.7691931440        3.1678444816
  O         6.3958363341        9.7076618188        4.9553846474
  O         6.3946795389        0.1903691321        6.5021187978
  O         6.5930620555       34.3483397358        8.2361556025
  O         6.4140165965        5.3928039542        2.2028407040
  O         6.4635690674       39.3635299173        3.9676950367
  O         6.4145797797       30.1365419563        5.7062812987
  O         6.3979329005       20.8559814536        7.4961409425
  O         6.4252344096       34.5083158521        3.4410031320
  O         6.4228788439       25.0718333245        5.3382876871
  O         6.3873180622       15.8755647690        6.9947368808
  O         6.3657068344        6.6105764993        8.8638203510
  O         3.1340433148        2.6140453869        3.4225966830
  O         2.9742529835       36.7650125377        5.1747413088
  O         2.9374379933       27.5145883415        6.9237026309
  O         2.9773246045       18.2942460745        8.4913528067
  O         2.9596518504       16.0816523211        4.1424332306
  O         2.9932650934        6.8521636034        5.8853778842
  O         3.0681272013       40.6890837800        7.6875628382
  O         3.0600180640       31.4190483318        9.4343730721
  O         2.9410075007       30.4441151390        2.7758816197
  O         2.9870318140       21.1288709572        4.5985354154
  O         2.9415187308       11.8881629635        6.3574268291
  O         2.9617242981        2.6683934661        8.1925129159
  O         1.7193756891        0.3230062430        3.6798781113
  O         1.7197313931       34.5845356672        5.4500773657
  O         1.7198722933       25.3264718694        7.1812804174
  O         1.7201253342       15.8536892905        9.0350237677
  O         1.7202307439        2.4541400480        5.5362716963
  O         1.7199561312       36.3578301106        7.3890632395
  O         1.7201122956       27.0841902395        9.1886003432
  O         1.7197129687       17.8743378272       11.0693106526
  P         1.7196573581        2.1183945247        4.0051184598
  P         1.7195164511       36.0166604861        5.7471605042
  P         1.7181536041       26.8123257983        7.5037436900
  P         1.7193385857       17.5526659313        9.3505428665
 Ca         1.7200750380       38.6177104349        4.1455105775
 Ca         1.7178861266       29.6655179167        5.7702723744
 Ca         1.7215582155       20.0779792141        7.6214920083
 Ca         1.7201384970       10.7927353618        9.3026739861
  O         1.7199073288       17.0167847644        2.1295351101
  O         1.7206160415        7.9432939255        3.8299630370
  O         1.7198265195       41.7095686841        5.6897655328
  O         1.7199355404       32.3937088216        7.3910608444
  O         1.7204573267       14.2362736134        2.8040772884
  O         1.7208535108        5.2213964086        4.4578686053
  O         1.7199959655       39.1940940910        6.2429344111
  O         1.7193954741       29.8771879376        8.0226185754
  P         1.7180264650       16.0149942751        3.2262306259
  P         1.7156203240        6.6984681424        4.9970909981
  P         1.7195730608       40.6277579784        6.8353857171
  P         1.7194391726       31.4031421534        8.6999611982
 Ca         1.7200570682       34.2595106153        2.7480372108
 Ca         1.7210236868       25.1310681770        4.4984436004
 Ca         1.7183469141       16.2470987995        6.3291963707
 Ca         1.7171352186        6.4715350980        8.1220825795
  O         1.7198625988       31.7978623483        4.5533030930
  O         1.7195941083       22.4665985402        6.5064909582
  O         1.7196085791       13.2534102035        8.0916248583
  O         1.7191155866        3.9551081267        9.9990588502
  O         1.7201614183       32.6915386614        2.0634130390
  O         1.7196128990       23.4402768958        3.8665518191
  O         1.7194399143       13.9549818154        5.7209673654
  O         1.7213179933        4.7105400720        7.4953452027
  P         1.7185454310       31.2895644901        2.8955954067
  P         1.7204482139       22.0298212358        4.8574025804
  P         1.7207360226       12.7754139343        6.6858995746
  P         1.7201106447        3.5751814638        8.4619533310
 Ca         1.7198244916       19.1763375084        3.1278613268
 Ca         1.7199623919        9.4981371759        4.9699373249
 Ca         1.7207524571        1.0133425815        7.0687201278
 Ca         1.7199190220       34.2486336426        8.7719219572
  O         5.1593526435       20.9520751708        2.7428147254
  O         5.1596451956       12.0289155760        4.3654126945
  O         5.1592635604        2.4399720099        6.2025782772
  O         5.1591877425       36.5975037355        7.9815434978
  O         5.1593543708       19.1780061751        0.7711631638
  O         5.1604492203       10.1219233050        2.3120773462
  O         5.1592855068        0.5160756875        4.1217558953
  O         5.1591068459       34.5638195947        6.0943637172
  P         5.1593370737       19.4950107552        2.2965283890
  P         5.1559906427        9.9830629967        4.0046624989
  P         5.1589048125        0.9909028830        5.8856675495
  P         5.1595364753       34.8539714168        7.6365441635
 Ca         5.1629121842       25.8785110482        2.2359245012
 Ca         5.1614537827       17.1281963560        3.7014110968
 Ca         5.1575497554        7.3920310375        5.5872529199
 Ca         5.1586290129       41.8255140585        7.6502107697
  O         5.1591394883        4.5839069640        4.2389278999
  O         5.1592306135       38.5282749806        5.9574656856
  O         5.1593914818       29.2314881004        7.7537377315
  O         5.1596935082       19.9513651367        9.5115488090
  O         5.1590721268        7.0724553530        3.6415472446
  O         5.1591448806       41.0194072673        5.3978923615
  O         5.1597282602       31.8363657786        7.1113369557
  O         5.1601486385       22.7568669507        8.8849168003
  P         5.1592597184        5.6493699504        3.0398052009
  P         5.1594922829       39.5555743404        4.8650039879
  P         5.1577228458       30.3605229867        6.6185417877
  P         5.1569020640       21.0178568657        8.4138841259
 Ca         5.1570492839       30.5060307310        3.5327662663
 Ca         5.1558871963       21.0538460643        4.9937365775
 Ca         5.1573732793       11.6062395783        6.8390972330
 Ca         5.1589081184        2.7056863105        8.9015994538
  O         5.1593244994       33.0465131059        1.5534664576
  O         5.1590466259       23.9716430951        3.2809109434
  O         5.1588694906       14.5359232745        5.3203979635
  O         5.1588229835        5.2266422582        7.0491648330
  O         5.1589780864       32.2742257720        4.1881199665
  O         5.1587154890       23.0586705223        5.9971696815
  O         5.1584690061       13.8519717467        7.7280411242
  O         5.1590500895        4.4977029999        9.5316406304
  P         5.1593654070       33.4685451561        3.1735922324
  P         5.1600028538       24.2114632003        4.9327882460
  P         5.1612115954       15.0214707639        6.7731866533
  P         5.1611809560        5.7006440722        8.5798747684
 Ca         5.1588433497        2.8252254396        2.9294841806
 Ca         5.1589184602       36.0041124632        4.4789239471
 Ca         5.1586183863       27.0171764671        6.2254530781
 Ca         5.1587152497       18.0389351113        8.3703363314
 Ca        -0.0352909499       42.3423446793        4.2891503087
 Ca         0.0319412283       32.8690779445        5.8319975099
 Ca         0.0556465937       23.4475650319        7.4058394667
 Ca        -0.0290154258       14.3606930554        9.4205771255
 Ca         3.4405434331       13.3265622859        4.0026304647
 Ca         3.4761571037        4.2628455377        5.8137870795
 Ca         3.4376849006       38.0930832841        7.4162882969
 Ca         3.4989441606       29.0346340201        9.0877034729
 Ca         6.8773534461       13.3252609517        4.0024426242
 Ca         6.8409723054        4.2632078905        5.8138241150
 Ca         6.8801286516       38.0932937401        7.4158345960
 Ca         6.8186806118       29.0348881985        9.0879284282
 Ca         3.4757822749       42.3421153557        4.2886029171
 Ca         3.4084814408       32.8706350346        5.8320299263
 Ca         3.3823339210       23.4480542382        7.4037802595
 Ca         3.4724196399       14.3624093554        9.4201058232
  O         1.1023181567       27.3979149643        4.0539151420
  O         1.0907738139       18.5745260563        5.7518404493
  O         0.7693211581        9.6741376211        7.9045044975
  O         1.1531362598       -0.0261195617        9.0532903963
  H         0.3189155838       28.1618244574        3.8383825415
  H         0.3832777692       18.4071137819        5.8506536124
  H         0.3407762945        8.9112749717        7.2544757819
  H         0.3211924367        0.0346262697        9.7013567724
  O         4.1082705677       27.3128942686        3.7710098033
  O         4.3963863075       18.0701028485        5.8061076489
  O         4.6821751522        9.5770173307        7.8179041880
  O         4.5307456089       -0.0088326915        9.1356690754
  H         3.7627352229       28.0610842410        4.3106748433
  H         3.8769183724       18.8049106098        5.8244615316
  H         3.7123704931        8.9297911031        7.7429667837
  H         3.7253869813        0.0015292381        9.6891784151
  O        12.9408808297       27.7107027001        4.0258594458
  O        12.8317314091       18.0775983532        5.7574992149
  O        12.6797554870        9.6159524725        7.2317082574
  O        12.7245269665       -0.0613929647        9.0156092250
  H        13.6250952670       27.7136014986        3.9855801861
  H        13.3236358611       18.8861109306        5.8492076826
  H        13.4473334808        8.9925113668        7.9910649804
  H        13.4372509839       -0.1169226684        9.7652580920
  O         2.2987377412       27.7611195471        4.4597698450
  O         2.3493253984       18.2604721451        5.7825658714
  O         2.5437118861        9.2833898155        7.8083976137
  O         2.2664954268       -0.0212644049        9.0777593801
  H         3.1847313750       27.7273563543        3.6377580626
  H         3.0342671080       18.4622828824        5.8329453597
  H         3.2445159206        9.2888189483        7.3222798215
  H         3.1143031454        0.0313566317        9.7016166979
  O         7.1845798106        2.6136030572        3.4222304020
  O         7.3438969024       36.7645680515        5.1747649708
  O         7.3801212318       27.5136389341        6.9268049866
  O         7.3403848652       18.2925201438        8.4922558167
  O         7.3595622852       16.0810617098        4.1426683615
  O         7.3244445527        6.8528013310        5.8858930490
  O         7.2500966432       40.6883059119        7.6873312799
  O         7.2584696820       31.4185122561        9.4345237038
  O         7.3811302781       30.4462057174        2.7826488936
  O         7.3310442581       21.1309270724        4.5982305631
  O         7.3763626854       11.8873164324        6.3578824540
  O         7.3559139703        2.6679378896        8.1934658435
  O        10.7641359016       18.7677561775        3.1673333843
  O        10.8024685824        9.6982391262        4.9684702478
  O        10.8030566733        0.1896315771        6.5068420188
  O        10.6043062197       34.3478960745        8.2362200611
  O        10.7844344243        5.3943970031        2.2029069452
  O        10.7336189968       39.3635668868        3.9681510965
  O        10.7812650259       30.1207211910        5.7094362202
  O        10.7996282967       20.8560507902        7.4956044554
  O        10.7728260448       34.5090047756        3.4408516175
  O        10.7763097859       25.0750580614        5.3433913312
  O        10.8102941403       15.8749353203        6.9945210520
  O        10.8326219256        6.6032297453        8.8639765888
  O        13.3122662845       18.7732502381        3.1639695373
  O        13.2747176214        9.7028792895        4.9551682038
  O        13.2736897109        0.1903462450        6.5023633518
  O        13.4721029736       34.3484475090        8.2361537703
  O        13.2922925863        5.3944821378        2.2025860141
  O        13.3427808328       39.3635536363        3.9677254917
  O        13.2932761312       30.1364697049        5.7063119609
  O        13.2780058437       20.8608904696        7.4995231110
  O        13.3041121797       34.5083048312        3.4410316943
  O        13.3015220992       25.0710251047        5.3351785525
  O        13.2656370545       15.8797657721        6.9920015876
  O        13.2418215799        6.6141478403        8.8639800519
  O        10.0133841281        2.6139654870        3.4224717515
  O         9.8532710074       36.7650920063        5.1746538813
  O         9.8166162995       27.5144258936        6.9236902566
  O         9.8563894422       18.2899850464        8.4922171528
  O         9.8373925875       16.0930194126        4.1532032121
  O         9.8711451414        6.8485632042        5.8875824484
  O         9.9463317804       40.6893518775        7.6873430732
  O         9.9385755016       31.4191239047        9.4343654043
  O         9.8204378187       30.4438469413        2.7755239981
  O         9.8658983521       21.1418336764        4.5916869327
  O         9.8193851052       11.8860038765        6.3587977680
  O         9.8404466512        2.6685908485        8.1892010565
  O         8.5983757823        0.3228847586        3.6800978985
  O         8.5988129827       34.5845085449        5.4500505981
  O         8.5992108529       25.3263041857        7.1818461597
  O         8.5981926356       15.8516673112        9.0351415618
  O         8.5992197690        2.4541117617        5.5361147844
  O         8.5989082151       36.3579288250        7.3892289834
  O         8.5997607424       27.0845409298        9.1893698218
  O         8.5986822800       17.8744067107       11.0696813712
  P         8.5982204845        2.1184221852        4.0050931694
  P         8.5984385288       36.0166721973        5.7472420846
  P         8.5971645523       26.8123388713        7.5040743748
  P         8.5983099606       17.5549141171        9.3504299391
 Ca         8.5990229783       38.6177658787        4.1455288638
 Ca         8.5968268663       29.6651722714        5.7705210862
 Ca         8.5970524658       20.0778803015        7.6194814276
 Ca         8.5973791609       10.7926380601        9.3031669006
  O         8.5982992425       17.0160827684        2.1294353381
  O         8.5976675582        7.9429258890        3.8296777275
  O         8.5987308998       41.7097424751        5.6897460842
  O         8.5986653032       32.3936964910        7.3909701795
  O         8.5980998278       14.2373983087        2.8051509116
  O         8.5984927847        5.2187033323        4.4577984541
  O         8.5988757260       39.1942936221        6.2428642721
  O         8.5990468452       29.8775137618        8.0223100395
  P         8.6005167482       16.0143533042        3.2266872555
  P         8.6027226590        6.6965166331        4.9977294645
  P         8.5983367518       40.6276501710        6.8348390452
  P         8.5985113421       31.4032720830        8.6995342200
 Ca         8.5990969972       34.2595672932        2.7481044273
 Ca         8.6003505504       25.1308004590        4.4985091473
 Ca         8.6011171763       16.2477161958        6.3291772191
 Ca         8.6006545111        6.4715439477        8.1219559051
  O         8.5989362703       31.7976909166        4.5530730267
  O         8.5991750414       22.4670843629        6.5062538801
  O         8.5978354600       13.2532485134        8.0914462599
  O         8.5998691247        3.9551130477       10.0016219410
  O         8.5988991451       32.6919507681        2.0634391482
  O         8.5991663972       23.4410036859        3.8667296885
  O         8.5989321355       13.9549236090        5.7209636673
  O         8.5980739699        4.7107905430        7.4952608624
  P         8.5976661743       31.2882917181        2.8954265029
  P         8.5971828527       22.0306500988        4.8573040411
  P         8.5983598668       12.7754488655        6.6859553872
  P         8.5974499503        3.5753301430        8.4588335587
 Ca         8.5997137612       19.1759510435        3.1282426321
 Ca         8.6026090886        9.4982694413        4.9695636900
 Ca         8.5990382333        1.0134425983        7.0689297370
 Ca         8.5990187264       34.2485469781        8.7718966342
  O        12.0386291356       20.9528250344        2.7461567426
  O        12.0385936029       12.0266308471        4.3651696980
  O        12.0378378739        2.4399383033        6.2029463667
  O        12.0381883205       36.5973257099        7.9816168157
  O        12.0382716820       19.1787599698        0.7709565280
  O        12.0392968262       10.1213295296        2.3123104245
  O        12.0384453242        0.5160526374        4.1215704159
  O        12.0380806757       34.5639524122        6.0944060453
  P        12.0384425394       19.4941978491        2.2926316757
  P        12.0355334427        9.9843754704        4.0032692813
  P        12.0379517274        0.9907935974        5.8857070936
  P        12.0385324686       34.8537290910        7.6368032554
 Ca        12.0372305696       25.8770162412        2.2355072815
 Ca        12.0355899685       17.1290707792        3.7015099585
 Ca        12.0367742734        7.3910385930        5.5861363217
 Ca        12.0375219037       41.8257214633        7.6503853428
  O        12.0382025094        4.5827067650        4.2394697085
  O        12.0382510944       38.5282756812        5.9576086096
  O        12.0382427246       29.2325883710        7.7522906488
  O        12.0378890414       19.9504707810        9.5115675329
  O        12.0383369102        7.0732007970        3.6541610387
  O        12.0381427379       41.0194233365        5.3979794599
  O        12.0386911906       31.8364893659        7.1115465671
  O        12.0370183758       22.7570315005        8.8855105737
  P        12.0380531525        5.6603832789        3.0392246300
  P        12.0386571636       39.5556643814        4.8647129240
  P        12.0371553220       30.3605816180        6.6185798446
  P        12.0407302229       21.0177529924        8.4139460633
 Ca        12.0366105333       30.5063432063        3.5338475830
 Ca        12.0411395539       21.0528743465        4.9942185305
 Ca        12.0366824320       11.6066095307        6.8395801808
 Ca        12.0382132543        2.7065144565        8.9015746561
  O        12.0382724721       33.0465572244        1.5534680893
  O        12.0379662601       23.9729531776        3.2807449052
  O        12.0384967705       14.5358862991        5.3201247620
  O        12.0378509235        5.2263962429        7.0504629863
  O        12.0378971606       32.2742598661        4.1880815758
  O        12.0372615582       23.0593365340        5.9962401570
  O        12.0390289755       13.8520875264        7.7297175975
  O        12.0381453763        4.4999087698        9.5325524489
  P        12.0385396771       33.4685294665        3.1735840831
  P        12.0404724969       24.2119757791        4.9323399748
  P        12.0367371938       15.0211411995        6.7740142524
  P        12.0412372664        5.7022168640        8.5827451409
 Ca        12.0381634029        2.8254485634        2.9292513163
 Ca        12.0379639166       36.0041323677        4.4789773632
 Ca        12.0371905541       27.0174819075        6.2251110332
 Ca        12.0376932813       18.0407067368        8.3697941312
 Ca         6.8436908736       42.3424793077        4.2892223739
 Ca         6.9107631731       32.8690827622        5.8320602479
 Ca         6.9366994732       23.4464456648        7.4038609502
 Ca         6.8459331255       14.3607117403        9.4198303376
 Ca        10.3201246038       13.3254223105        4.0024625555
 Ca        10.3558880987        4.2585952008        5.8125257900
 Ca        10.3166542846       38.0931054564        7.4156179957
 Ca        10.3775778752       29.0339517121        9.0877756507
 Ca        13.7555134954       13.3262029881        4.0022941385
 Ca        13.7198593728        4.2586509936        5.8127162541
 Ca        13.7591102613       38.0932624330        7.4153208400
 Ca        13.6982335550       29.0343189909        9.0881517628
 Ca        10.3546839521       42.3423571582        4.2886982282
 Ca        10.2874656333       32.8702183512        5.8320534189
 Ca        10.2618198770       23.4472710929        7.4044315310
 Ca        10.3470457545       14.3616110016        9.4202812913
  O         7.9759477650       27.3989933746        4.0666695747
  O         7.9083920555       18.1811551667        5.8419473448
  O         7.7380852601        9.3580397197        7.8109024464
  O         8.0368366740        0.0016046207        9.0586558039
  H         7.2025545212       28.1636004016        3.8551084271
  H         7.3436814835       18.7534906319        5.7601182312
  H         7.0616401939        9.2574023839        7.2977735664
  H         7.1904472861        0.0157068408        9.6959599912
  O        10.9918406503       27.3131579871        3.7913101679
  O        11.3496212754       18.5570875675        6.0296022630
  O        11.5293689457        9.5869026456        7.7100317023
  O        11.4055202930       -0.0146327641        9.1227417403
  H        10.6533689076       28.0739207543        4.3110190146
  H        10.6931660176       18.5035806855        5.7286495791
  H        10.5785323551        9.0089291168        7.8441695448
  H        10.6064062079       -0.0127524679        9.6988970417
  O         6.0722300008       27.7148525215        4.0159215439
  O         5.8841892920       18.6272608129        6.0879510777
  O         5.7919811518        9.6879133231        7.2125055193
  O         5.8499455392       -0.0553747669        9.0043760240
  H         6.7422291308       27.7677407115        3.9979647002
  H         6.4859190522       18.5402915446        5.6139026962
  H         6.5340733663        8.8725045815        7.9986515868
  H         6.5566627153       -0.1292663558        9.7722736672
  O         9.1649667501       27.7583151292        4.4633271372
  O         9.1991109158       18.5006352258        5.7847182960
  O         9.5324206413        9.6926294148        7.9207678479
  O         9.1443526275       -0.0516308917        9.0750395953
  H        10.0600788451       27.7383430344        3.6416549116
  H         9.9136958328       18.5244487557        5.8333228385
  H         9.9690864592        8.9391330920        7.2561702200
  H        10.0003423720        0.0528910055        9.7006762454
  O         7.1890182856       21.7031288711       17.8357029879
  C         7.2846076225       22.8249119202       17.8577132565
  O         7.4082122845       23.9343878846       17.8862307578
     387
 i =        9, E =     -6914.8362789602
  O         0.3813225893        2.6772626520        3.4091107079
  O         0.4713233414       36.7634284233        5.1655177664
  O         0.4846134126       27.5083853635        6.9290845094
  O         0.4786513415       18.2649511227        8.5549113053
  O         0.4752237538       16.0976690636        4.1514537530
  O         0.4585345061        6.8611914015        5.9078134864
  O         0.4152294419       40.7288157142        7.6876092314
  O         0.4185787182       31.4670049879        9.4517354816
  O         0.4823056001       30.4285496521        2.7970343512
  O         0.4737444072       21.1482727615        4.6004886121
  O         0.4908156526       11.8967088655        6.3669983432
  O         0.4707432007        2.6511995619        8.1664011118
  O         3.9032983683       18.7718204029        3.1151000828
  O         3.9258834095        9.6394410091        4.9327453353
  O         3.9232834208        0.2203433944        6.4856315271
  O         3.8032344863       34.2980267784        8.2366865287
  O         3.9142187596        5.4131550996        2.1833385232
  O         3.8786570157       39.3805728829        3.9565993204
  O         3.9123216452       30.1246816403        5.7115712984
  O         3.9118799373       20.8761098365        7.4910324189
  O         3.9048264918       34.4607162910        3.4597208232
  O         3.9082416510       25.0917202480        5.3171197341
  O         3.9221601657       15.8710551451        7.0179359039
  O         3.9326529510        6.6034697622        8.8391139416
  O         6.4171889266       18.7694162994        3.1221934434
  O         6.3935942008        9.6426637422        4.9073771596
  O         6.3954913125        0.2205682374        6.4820331529
  O         6.5150403809       34.2984324300        8.2366227367
  O         6.4046950678        5.4139069837        2.1833050260
  O         6.4398296709       39.3805460891        3.9564223644
  O         6.4051693814       30.1359054208        5.7108738576
  O         6.4054190393       20.8752611796        7.4913157183
  O         6.4140984362       34.4601127408        3.4598281513
  O         6.4116802250       25.0909061631        5.3127243177
  O         6.3973852300       15.8709314879        7.0183307510
  O         6.3843524394        6.6124662417        8.8400383170
  O         3.0579774750        2.6774158756        3.4092791448
  O         2.9678143175       36.7636871776        5.1654781328
  O         2.9543872583       27.5084507138        6.9294327742
  O         2.9605544678       18.2664905326        8.5551036528
  O         2.9672991603       16.0937696658        4.1468239556
  O         2.9789598003        6.8623018361        5.9053941040
  O         3.0242097499       40.7292501690        7.6876915262
  O         3.0210442156       31.4672337660        9.4515688490
  O         2.9582895965       30.4278396609        2.7931509501
  O         2.9659738507       21.1398260401        4.6041840355
  O         2.9495554835       11.8968560780        6.3667946395
  O         2.9680970119        2.6511794407        8.1674716524
  O         1.7196386300        0.3585722675        3.6788654770
  O         1.7198612693       34.5627549366        5.4506901795
  O         1.7198141867       25.3041685802        7.2037688610
  O         1.7201440956       15.9230165332        9.0250661288
  O         1.7201231773        2.4329273570        5.5151004737
  O         1.7199768072       36.3557659264        7.3417899128
  O         1.7199714465       27.0891599116        9.1304345007
  O         1.7198092033       17.8461175462       11.0246954199
  P         1.7198249325        2.1342052038        3.9694041121
  P         1.7196683788       36.0456057564        5.7551242700
  P         1.7199076905       26.8179185515        7.5347594621
  P         1.7197327774       17.5725046372        9.3715303896
 Ca         1.7200401234       38.6093088851        4.0921387039
 Ca         1.7186079762       29.6508043515        5.7717404265
 Ca         1.7202596507       20.0830267661        7.6044577052
 Ca         1.7231418391       10.8128163424        9.3154245428
  O         1.7199242420       16.9984512065        2.1156663963
  O         1.7200752963        7.8803189275        3.8579844424
  O         1.7199048337       41.6805784312        5.6717207349
  O         1.7200077746       32.3919401177        7.4078519696
  O         1.7200225511       14.2814435554        2.7761402474
  O         1.7200505680        5.2293992087        4.4808084603
  O         1.7200005013       39.1799949188        6.2577063619
  O         1.7196993752       29.8914170905        8.0367294414
  P         1.7287905685       15.9823258955        3.2130993819
  P         1.7199340486        6.7088565843        4.9734178899
  P         1.7198140572       40.6383124942        6.8372515632
  P         1.7197071897       31.3893041509        8.6612894944
 Ca         1.7200307288       34.2143139882        2.7645135171
 Ca         1.7212968670       25.1558938672        4.5227756474
 Ca         1.7248499312       16.2185546744        6.3274037126
 Ca         1.7196392785        6.4206688116        8.1218547298
  O         1.7200155606       31.7876224810        4.5576139577
  O         1.7198689259       22.4852964850        6.4493847062
  O         1.7200108769       13.2593180710        8.1289564446
  O         1.7193847167        3.9701983976        9.9486389064
  O         1.7200160303       32.6212629555        2.0746033068
  O         1.7199717734       23.3773777873        3.8850299392
  O         1.7198307962       13.9520266463        5.6980906413
  O         1.7206605981        4.6887527477        7.4582564974
  P         1.7204277058       31.2835657895        2.9688053049
  P         1.7193036307       22.0253926349        4.8471788286
  P         1.7191972661       12.7557591157        6.6629969608
  P         1.7200164778        3.5517194865        8.5108239210
 Ca         1.7285795294       19.2036608934        3.0779371672
 Ca         1.7202018000        9.4400249242        4.9560319563
 Ca         1.7204505116        0.9937359338        7.0937108370
 Ca         1.7199396631       34.2208501099        8.8218002716
  O         5.1594051310       20.9568135475        2.6961091084
  O         5.1591835078       11.9969868896        4.3803070507
  O         5.1591204655        2.4498019810        6.1872997428
  O         5.1591019027       36.5182469478        7.9658457950
  O         5.1594872887       19.1846261281        0.7930171575
  O         5.1595638283       10.0548598901        2.3431089887
  O         5.1590718558        0.5809811502        4.1832055959
  O         5.1590479174       34.5833191597        6.1147400529
  P         5.1582167140       19.4874905335        2.2891424087
  P         5.1585749406       10.0606804612        4.0088425298
  P         5.1590746500        0.9685503671        5.8826049712
  P         5.1593407676       34.8679059390        7.6680938290
 Ca         5.1608346314       25.8988390391        2.2650743198
 Ca         5.1590569506       17.0633590143        3.6872115698
 Ca         5.1498259200        7.4289240380        5.6251183827
 Ca         5.1568285063       41.7707074084        7.6309094444
  O         5.1590993953        4.5913643891        4.2354773550
  O         5.1591308858       38.5353850868        5.9779961072
  O         5.1591242971       29.2557541406        7.7591474907
  O         5.1590929353       19.9933739652        9.5181200155
  O         5.1590027342        7.0758486751        3.6131654282
  O         5.1590998062       41.0219101811        5.3775470380
  O         5.1589942265       31.8064231293        7.1157504649
  O         5.1593544892       22.7003565485        8.8843604407
  P         5.1592518941        5.6588850737        3.0267644134
  P         5.1593269954       39.5642587865        4.8294099834
  P         5.1597476782       30.3544614009        6.6114265620
  P         5.1602624927       21.0335048949        8.4268958691
 Ca         5.1584857659       30.5332794068        3.5191759935
 Ca         5.1579822750       21.0006520330        5.0004166285
 Ca         5.1556810358       11.5926003744        6.8676529315
 Ca         5.1586454093        2.7207584367        8.8927230817
  O         5.1591921796       33.0393369744        1.6350554684
  O         5.1590323999       23.9125361782        3.3355051490
  O         5.1590617262       14.5186828606        5.2979617520
  O         5.1590935158        5.2336018362        7.0516705923
  O         5.1589662583       32.3172239223        4.1963920529
  O         5.1588509195       23.0674917080        5.9826875331
  O         5.1588111100       13.8280971757        7.7475867711
  O         5.1594207511        4.5254174090        9.5256530651
  P         5.1593341282       33.4849803384        3.1203580563
  P         5.1593378369       24.2344560058        4.9171936403
  P         5.1592817255       15.0238939759        6.7424794082
  P         5.1463094042        5.7318144800        8.5735934136
 Ca         5.1589166672        2.8950324074        2.8690299329
 Ca         5.1589869540       36.0284322876        4.4874144368
 Ca         5.1597612786       27.0293947424        6.2437459871
 Ca         5.1598020790       17.9948427310        8.3517982329
 Ca        -0.0130853625       42.2753829577        4.2535433486
 Ca         0.0212702556       32.8761445248        5.8257700960
 Ca         0.0283482259       23.5112799119        7.4744313485
 Ca        -0.0089141752       14.3790714964        9.3969314699
 Ca         3.4432927207       13.3485127388        4.0197212051
 Ca         3.4605407113        4.2144472430        5.8095118691
 Ca         3.4440390386       38.0699053805        7.4780912409
 Ca         3.4702206598       28.9885653607        9.1089340224
 Ca         6.8744893915       13.3474418759        4.0197355616
 Ca         6.8536631176        4.2105515551        5.8051261798
 Ca         6.8738610122       38.0699820378        7.4777971501
 Ca         6.8476184550       28.9889651530        9.1090591239
 Ca         3.4533384412       42.2752342390        4.2527220560
 Ca         3.4188950947       32.8773228042        5.8257861178
 Ca         3.4104348926       23.5121262115        7.4729258826
 Ca         3.4508031320       14.3802984658        9.3965142479
  O         1.1562445004       27.3254432931        4.0403326801
  O         1.1073858264       18.5986937934        5.7575083152
  O         0.7361724770        9.7308500782        7.8978561613
  O         1.1132907404       -0.0162690354        9.0420189316
  H         0.3347239974       28.2414836910        3.8970383246
  H         0.3704628678       18.4051695225        5.8547907702
  H         0.3554454462        8.8990802654        7.2378425265
  H         0.3464695663        0.0320370156        9.7102488732
  O         4.0242088251       27.2436858143        3.7926959984
  O         4.3933523841       18.0082156236        5.8054858459
  O         4.6672323905        9.5860706255        7.7809912131
  O         4.5552807502       -0.0002843488        9.1669214974
  H         3.8009129518       28.0520447166        4.2931842288
  H         3.9333735805       18.7974292878        5.8199042436
  H         3.7227555290        8.9138604057        7.7130164151
  H         3.7716450894       -0.0042399903        9.6995266532
  O        12.8608221087       27.7388156693        4.0334812019
  O        12.8272236048       18.0223203192        5.7754907322
  O        12.6325853997        9.6344288282        7.1986289435
  O        12.6930296112       -0.0328624100        8.9939556141
  H        13.6510715217       27.7003621045        4.0105823086
  H        13.2643196653       18.9131724172        5.8386410897
  H        13.4540851509        9.0192214670        8.0572085892
  H        13.4047279259       -0.0874796699        9.8066656246
  O         2.2663477391       27.7701660945        4.5305944061
  O         2.3222204561       18.2578274320        5.7864376500
  O         2.4926434927        9.2660709210        7.7650034617
  O         2.3012225395       -0.0147078888        9.0801262537
  H         3.1660022204       27.7371904086        3.5699650860
  H         3.0685947876       18.5110761510        5.8354725093
  H         3.2148165626        9.2946051115        7.3286805991
  H         3.0882882760        0.0223102449        9.7169383631
  O         7.2603809714        2.6768257493        3.4090816937
  O         7.3503295434       36.7634269432        5.1655290838
  O         7.3636568687       27.5083770537        6.9290969567
  O         7.3576986177       18.2649702419        8.5569093946
  O         7.3511123444       16.0938765172        4.1473010250
  O         7.3354668977        6.8638323400        5.8991976433
  O         7.2939173322       40.7288120771        7.6875867357
  O         7.2972351497       31.4669673607        9.4516537246
  O         7.3614902236       30.4283998462        2.7975006906
  O         7.3521115579       21.1408392415        4.6038657278
  O         7.3686646565       11.8970214096        6.3669697417
  O         7.3497641348        2.6510892217        8.1679669149
  O        10.7809464406       18.7687917948        3.1206933966
  O        10.8051384108        9.6361578098        4.9299140789
  O        10.8023648898        0.2201426639        6.4853368503
  O        10.6821579648       34.2981111242        8.2366889055
  O        10.7934215740        5.4152834072        2.1833940292
  O        10.7576644222       39.3805592551        3.9565859672
  O        10.7912862954       30.1251324272        5.7116204816
  O        10.7924490919       20.8749548322        7.4909451089
  O        10.7838403441       34.4606533180        3.4597359486
  O        10.7873705143       25.0917283786        5.3163842102
  O        10.8001610338       15.8707150654        7.0183581934
  O        10.8135897493        6.6075446100        8.8399818077
  O        13.2947803097       18.7726172878        3.1152025686
  O        13.2722515478        9.6395805186        4.9072263656
  O        13.2744263254        0.2205843517        6.4822424508
  O        13.3941154351       34.2984878746        8.2366337558
  O        13.2833115097        5.4153422984        2.1833572627
  O        13.3189555943       39.3805627760        3.9564377088
  O        13.2842520724       30.1357801149        5.7107195496
  O        13.2861036483       20.8759435554        7.4913592866
  O        13.2930780477       34.4601012504        3.4598353499
  O        13.2908766130       25.0907613808        5.3106627443
  O        13.2755176771       15.8717419172        7.0177954096
  O        13.2637418474        6.6149568342        8.8394460663
  O         9.9371904846        2.6772895956        3.4092224886
  O         9.8468177400       36.7637416647        5.1654378015
  O         9.8333849788       27.5083449461        6.9295934220
  O         9.8394603180       18.2633482896        8.5564398729
  O         9.8425414671       16.1003139888        4.1548714140
  O         9.8627485752        6.8623004161        5.9014746489
  O         9.9027939518       40.7293311003        7.6875145718
  O         9.8997987458       31.4673233060        9.4515963444
  O         9.8376206144       30.4277280811        2.7929088481
  O         9.8445722640       21.1488170138        4.5996727143
  O         9.8274353754       11.8972338501        6.3664379258
  O         9.8470398897        2.6510991996        8.1653870999
  O         8.5986545030        0.3584041507        3.6790033859
  O         8.5989152672       34.5627764442        5.4506943060
  O         8.5990283414       25.3041467795        7.2042095459
  O         8.5984877012       15.9213053343        9.0251231277
  O         8.5991611035        2.4328992843        5.5150708984
  O         8.5989512200       36.3558399106        7.3418949736
  O         8.5993254515       27.0894256997        9.1309657914
  O         8.5988682207       17.8460757842       11.0253681751
  P         8.5985196025        2.1342288707        3.9693313209
  P         8.5986294123       36.0455729663        5.7551437300
  P         8.5989415060       26.8179652805        7.5346909032
  P         8.5981674221       17.5743892510        9.3712762564
 Ca         8.5989903996       38.6093338484        4.0921339562
 Ca         8.5976407517       29.6502678599        5.7717856077
 Ca         8.5985750211       20.0826950179        7.6034277007
 Ca         8.5960690912       10.8219289821        9.3187942703
  O         8.5986083389       16.9980081660        2.1157867758
  O         8.5985871825        7.8798104937        3.8577902291
  O         8.5988463134       41.6807034418        5.6717158098
  O         8.5988184378       32.3919732228        7.4078086720
  O         8.5987628194       14.2833691475        2.7768353821
  O         8.5991658111        5.2279860123        4.4809034929
  O         8.5988940014       39.1800760861        6.2576463963
  O         8.5990152318       29.8916599020        8.0366602404
  P         8.5899606644       15.9817105272        3.2130256583
  P         8.5981511315        6.7077375985        4.9669107464
  P         8.5986678643       40.6382479250        6.8369565041
  P         8.5986828804       31.3892927470        8.6610365299
 Ca         8.5990520901       34.2143766624        2.7645528936
 Ca         8.6002655439       25.1555880556        4.5229133178
 Ca         8.5950603635       16.2168462274        6.3287272698
 Ca         8.6006373415        6.4047710050        8.1601469817
  O         8.5990865612       31.7875642907        4.5575334341
  O         8.5989093840       22.4856049478        6.4489981429
  O         8.5981452848       13.2592643931        8.1289071527
  O         8.5995512384        3.9630472312        9.9549676326
  O         8.5988751721       32.6218292193        2.0745995120
  O         8.5987198626       23.3784041854        3.8850321889
  O         8.5988167296       13.9522088000        5.6979685295
  O         8.5985242643        4.6891733872        7.4580423122
  P         8.5993916981       31.2828026637        2.9685506302
  P         8.5990704835       22.0260326064        4.8472008600
  P         8.5992693950       12.7554254107        6.6630423856
  P         8.5979840928        3.5492044793        8.5101723027
 Ca         8.5911036414       19.2039682611        3.0782207518
 Ca         8.6003237924        9.4477301483        4.9474703399
 Ca         8.5989285772        0.9938983340        7.0937422146
 Ca         8.5989942836       34.2207269232        8.8217776714
  O        12.0381373030       20.9569672854        2.6978104399
  O        12.0380812298       11.9934481075        4.3801630144
  O        12.0378362638        2.4498220853        6.1875235404
  O        12.0380947964       36.5181542715        7.9659020426
  O        12.0379407587       19.1852954118        0.7916778309
  O        12.0384549365       10.0544857414        2.3434963738
  O        12.0381872826        0.5810047248        4.1829638848
  O        12.0380426923       34.5833963277        6.1147870210
  P        12.0392112673       19.4877315911        2.2877008153
  P        12.0379513366       10.0626150852        4.0079721922
  P        12.0381172401        0.9683619592        5.8825855859
  P        12.0383288089       34.8677755881        7.6681945983
 Ca        12.0385754620       25.8964959701        2.2649427903
 Ca        12.0422384881       17.0766613340        3.6474467086
 Ca        12.0461870345        7.4273257004        5.6233858613
 Ca        12.0360320216       41.7707420088        7.6306249455
  O        12.0380983335        4.5910424098        4.2354558849
  O        12.0381404962       38.5354334639        5.9780537457
  O        12.0381322568       29.2564291692        7.7582829215
  O        12.0382175565       19.9927673254        9.5181827511
  O        12.0382375103        7.0763542109        3.6205375807
  O        12.0380958648       41.0219326764        5.3776144578
  O        12.0380395089       31.8065490661        7.1158653575
  O        12.0377620370       22.7006374360        8.8847441092
  P        12.0381280597        5.6645539279        3.0265139519
  P        12.0384078193       39.5642662888        4.8292777880
  P        12.0385491329       30.3544546185        6.6114987049
  P        12.0373536583       21.0333574377        8.4266133248
 Ca        12.0375564863       30.5337747455        3.5199549666
 Ca        12.0388220543       21.0096033818        5.0044302695
 Ca        12.0357133907       11.5908953326        6.8686757520
 Ca        12.0383106490        2.7220358302        8.8926473755
  O        12.0381867170       33.0393544544        1.6350533408
  O        12.0380006664       23.9146400743        3.3351680035
  O        12.0381635719       14.5110928832        5.3026404214
  O        12.0381272582        5.2336745552        7.0526957076
  O        12.0379474784       32.3172805142        4.1963592346
  O        12.0378202934       23.0681210042        5.9821539103
  O        12.0384946184       13.8284614195        7.7483200340
  O        12.0383383002        4.5269894282        9.5263249727
  P        12.0383427068       33.4849931960        3.1203779622
  P        12.0382626209       24.2345721143        4.9173224886
  P        12.0385121295       15.0183917895        6.7502691560
  P        12.0519812191        5.7326582708        8.5747679994
 Ca        12.0381254244        2.8953163847        2.8686435879
 Ca        12.0379969521       36.0284619758        4.4874505802
 Ca        12.0383901928       27.0296902781        6.2435935599
 Ca        12.0368821089       17.9981548389        8.3536994004
 Ca         6.8658682966       42.2754761537        4.2536412785
 Ca         6.9002173907       32.8761167219        5.8257683068
 Ca         6.9086546226       23.5094648527        7.4731712739
 Ca         6.8678908227       14.3793613240        9.3965098357
 Ca        10.3182473755       13.3375454174        4.0206598590
 Ca        10.3431576608        4.2072885194        5.8043896115
 Ca        10.3230141920       38.0698964532        7.4776655134
 Ca        10.3491230270       28.9875081765        9.1091221537
 Ca        13.7577674892       13.3382029974        4.0204230131
 Ca        13.7360584596        4.2114967023        5.8088736925
 Ca        13.7528813725       38.0699482962        7.4774747465
 Ca        13.7267200488       28.9881152709        9.1095901735
 Ca        10.3322662898       42.2753720692        4.2528500489
 Ca        10.2978548489       32.8770198031        5.8257864460
 Ca        10.2896549871       23.5107241065        7.4734888060
 Ca        10.3271945853       14.3797163461        9.3967056923
  O         8.0308284565       27.3264693714        4.0490874128
  O         7.8851285835       18.1536320775        5.8414784595
  O         7.7651262130        9.3244713224        7.7747855423
  O         7.9950378469        0.0117280567        9.0491620101
  H         7.2241604065       28.2457527538        3.9057901326
  H         7.3688309660       18.7436902768        5.7762692989
  H         7.1094330200        9.2556482207        7.2890759923
  H         7.2190289019        0.0172563135        9.7028595540
  O        10.9029028734       27.2466477760        3.8258665496
  O        11.3941635888       18.5625970143        6.0244699539
  O        11.5204157512        9.6019199803        7.6841787717
  O        11.4330133133       -0.0024907354        9.1481645939
  H        10.6890424538       28.0717355294        4.2941762622
  H        10.7003928420       18.4978279223        5.7126491273
  H        10.5914918069        9.0394924827        7.8141119242
  H        10.6516021308       -0.0164255166        9.7146166077
  O         5.9918488331       27.7326949740        4.0269754065
  O         5.8620935907       18.6006758148        6.0980319357
  O         5.7310809002        9.7478897877        7.1703779743
  O         5.8172948818       -0.0287605147        8.9773095341
  H         6.7788940481       27.7449526987        4.0243667322
  H         6.4464431815       18.5155268667        5.6377169506
  H         6.5677246935        8.8348586374        8.0628294085
  H         6.5245401250       -0.0956713537        9.8174611517
  O         9.1367641129       27.7663929442        4.5361393331
  O         9.1705721308       18.5180295484        5.7840500906
  O         9.5584433849        9.7519321747        7.9166913432
  O         9.1797061315       -0.0470701612        9.0754633827
  H        10.0487673799       27.7444270789        3.5735536240
  H         9.9439232362       18.5203253638        5.8412773639
  H         9.9674287218        8.9446309203        7.2421556625
  H         9.9730972648        0.0418365664        9.7151844580
  O         7.1529784202       21.7169656180       17.8338678387
  C         7.2865106837       22.8156417620       17.8582931289
  O         7.4437968719       23.9426736452       17.8900696373
     387
 i =       10, E =     -6916.5059724093
  O         0.4152293748        2.6765045968        3.3927735958
  O         0.4793598039       36.7884023149        5.1507589038
  O         0.4558129754       27.5018286878        6.9349613359
  O         0.5126652642       18.2152774464        8.5761690395
  O         0.4657492837       16.0726196018        4.1718340992
  O         0.4806505731        6.8825506265        5.9383699803
  O         0.4208339411       40.7211012209        7.6876654721
  O         0.4222565695       31.4686048162        9.4758651912
  O         0.4457596824       30.4041375939        2.8267367378
  O         0.5073637416       21.1413058174        4.6279403426
  O         0.4762227399       11.9177668739        6.3781130365
  O         0.4617013404        2.6269929542        8.1263865499
  O         3.9339528802       18.7582249720        3.1075195011
  O         3.9400541841        9.6375896071        4.9260785007
  O         3.9212191643        0.2197759396        6.4384931110
  O         3.8398815666       34.2995849884        8.2355475480
  O         3.9270816401        5.3952098116        2.1541054467
  O         3.8730017695       39.4063113044        3.9391501793
  O         3.9275205296       30.1075815999        5.7136325149
  O         3.8974808953       20.9007874987        7.4785633130
  O         3.9244867863       34.4484079173        3.4919598522
  O         3.9247108231       25.1138479817        5.3289383077
  O         3.9044256397       15.8543367293        7.0625314002
  O         3.8955959127        6.6267875906        8.8021243631
  O         6.3875687281       18.7547870860        3.1188368748
  O         6.3834726663        9.6402067091        4.8849944422
  O         6.3983157684        0.2197956557        6.4342830223
  O         6.4784642556       34.2997506139        8.2355602788
  O         6.3916218326        5.3956115145        2.1544383376
  O         6.4456655591       39.4063202031        3.9394257040
  O         6.3909548179       30.1194173316        5.7182177985
  O         6.4182846569       20.9106646738        7.4871783827
  O         6.3941137053       34.4478946463        3.4920646086
  O         6.3945997624       25.1185278160        5.3231216697
  O         6.4140481492       15.8621959054        7.0573434789
  O         6.4161732733        6.6339443128        8.8023959091
  O         3.0237664004        2.6766811701        3.3926412331
  O         2.9598103178       36.7885112531        5.1506795790
  O         2.9857024106       27.5001219737        6.9457165357
  O         2.9265465997       18.2169209403        8.5779063078
  O         2.9821300620       16.0682237419        4.1676222336
  O         2.9538127303        6.8777966589        5.9344637543
  O         3.0178895909       40.7214759629        7.6875456973
  O         3.0170301563       31.4685899067        9.4758274091
  O         2.9937071035       30.4063164980        2.8237658472
  O         2.9320222139       21.1306666166        4.6317819351
  O         2.9634304787       11.9115777314        6.3824819430
  O         2.9771004613        2.6267906145        8.1269240188
  O         1.7200128843        0.3698174344        3.6797359726
  O         1.7200648986       34.5323326639        5.4541220295
  O         1.7195190130       25.2684473096        7.2440422513
  O         1.7203506762       15.9532400103        9.0156245131
  O         1.7199233078        2.4003642282        5.4780147351
  O         1.7200137758       36.3793459343        7.3289336140
  O         1.7194016243       27.1207663103        9.1110728417
  O         1.7199158164       17.7974923711       10.9832509269
  P         1.7200787328        2.1502416120        3.9123478611
  P         1.7198846608       36.0839963453        5.7697422241
  P         1.7234647432       26.8266478623        7.5855580299
  P         1.7206484498       17.6154031076        9.4323293961
 Ca         1.7199924947       38.5956480245        4.0926012219
 Ca         1.7195964706       29.6688552276        5.7702930080
 Ca         1.7171603387       20.0886770598        7.6212398748
 Ca         1.7344580327       10.8451931251        9.3304108882
  O         1.7202039134       17.0086390622        2.0914738444
  O         1.7189275460        7.8207124090        3.8967038439
  O         1.7200444408       41.6325814489        5.6483447651
  O         1.7201746519       32.3863085035        7.4335923092
  O         1.7196503002       14.2933519589        2.7877829289
  O         1.7180731183        5.2133163813        4.5173384396
  O         1.7200158507       39.1469864932        6.2782659099
  O         1.7202166505       29.8888389037        8.0548599158
  P         1.7304409583       15.9214401533        3.1992046978
  P         1.7285508790        6.7207638475        4.9295247182
  P         1.7201379255       40.6551336929        6.8708284162
  P         1.7199808163       31.3614329528        8.6575541713
 Ca         1.7199822779       34.2506676084        2.8099275381
 Ca         1.7240396437       25.1749726791        4.5691272844
 Ca         1.7267575151       16.1692735758        6.3188576785
 Ca         1.7252645883        6.4148497088        8.1372106414
  O         1.7203621764       31.7766875574        4.5572141965
  O         1.7204552127       22.5151360049        6.4293825198
  O         1.7209163862       13.2656977169        8.1914239108
  O         1.7196820020        3.9995587153        9.9397645520
  O         1.7197175641       32.5287552090        2.0768191659
  O         1.7207799675       23.3121298183        3.9173565169
  O         1.7207738618       13.9489488556        5.6626564135
  O         1.7195154538        4.6204217909        7.3930120938
  P         1.7233676159       31.2551870903        2.9911202696
  P         1.7164523542       22.0227870504        4.8104298028
  P         1.7169399677       12.7242778476        6.6283824514
  P         1.7200182000        3.5072223546        8.5862196430
 Ca         1.7296804644       19.2363513326        3.0002326218
 Ca         1.7216253591        9.3912219373        4.9266107595
 Ca         1.7204931812        1.0188343010        7.1297482334
 Ca         1.7199467374       34.1655693235        8.8231402734
  O         5.1595785032       20.9649475764        2.6976737624
  O         5.1582628912       11.9883484450        4.4019089888
  O         5.1588194250        2.4598404276        6.1616715864
  O         5.1589647327       36.4774937836        7.9390298805
  O         5.1600309138       19.1935043358        0.7962955814
  O         5.1578638352       10.0486275986        2.3726937266
  O         5.1586428486        0.5996753986        4.2174968788
  O         5.1589458617       34.6113217245        6.1506944724
  P         5.1560515479       19.4770431532        2.2603935722
  P         5.1621568425       10.1033077088        3.9703363534
  P         5.1593008002        0.9396738804        5.8663458462
  P         5.1589822985       34.8969845675        7.7243349722
 Ca         5.1578161382       25.8782985978        2.3175789999
 Ca         5.1537134306       17.0453552743        3.6422011069
 Ca         5.1495147051        7.4243955087        5.6296775316
 Ca         5.1506058602       41.7495206599        7.5894527447
  O         5.1588848434        4.5722777421        4.2369632163
  O         5.1589743774       38.5481792365        6.0091575196
  O         5.1586265099       29.2569979033        7.7742093837
  O         5.1577336317       19.9979225135        9.5300838977
  O         5.1588284591        7.0788744334        3.6125565979
  O         5.1590448078       41.0250324356        5.3460551554
  O         5.1572919025       31.8109766648        7.1210645299
  O         5.1575299344       22.6804555234        8.8480178555
  P         5.1592816139        5.7025225416        3.0003166149
  P         5.1591061422       39.5750515347        4.7764699625
  P         5.1639643463       30.3473592986        6.5984714823
  P         5.1670165817       21.0688263572        8.4419475288
 Ca         5.1617000060       30.5438879952        3.4688476386
 Ca         5.1630093084       20.9914874900        4.9597625307
 Ca         5.1447072410       11.5985240488        6.8284320545
 Ca         5.1585713874        2.7467029709        8.8705678261
  O         5.1590057263       33.0263891361        1.6863183919
  O         5.1590704658       23.9217680457        3.3589258785
  O         5.1594557404       14.4922103617        5.2623118999
  O         5.1590696519        5.2401679672        7.0580798437
  O         5.1589431931       32.4089411910        4.2348220746
  O         5.1592441807       23.0975043317        5.9871761456
  O         5.1596692087       13.7928964768        7.7986154950
  O         5.1601201556        4.5369402639        9.5234574343
  P         5.1592707211       33.5194859297        3.0340982063
  P         5.1574328588       24.2695482837        4.8891897443
  P         5.1561841677       15.0306936648        6.6958115136
  P         5.1437930941        5.7917158770        8.5975801856
 Ca         5.1590106811        2.9542669603        2.8562138077
 Ca         5.1591048404       36.0197666915        4.5011286459
 Ca         5.1627335401       27.0474714305        6.2633748425
 Ca         5.1631326848       18.0004959895        8.3693309081
 Ca         0.0196075162       42.2691623973        4.2712745699
 Ca         0.0040858074       32.8546760060        5.8184947120
 Ca        -0.0141364887       23.5159572036        7.4839034523
 Ca         0.0296463091       14.4161054746        9.3548726969
 Ca         3.4465607109       13.3889276368        4.0488386224
 Ca         3.4362564502        4.2189946022        5.8014537029
 Ca         3.4543792684       38.0352133149        7.4794305424
 Ca         3.4247277824       28.9894047473        9.0882415319
 Ca         6.8709453185       13.3875981534        4.0492422906
 Ca         6.8778849199        4.2142204099        5.7956536929
 Ca         6.8636520623       38.0350546984        7.4791965739
 Ca         6.8934526131       28.9901477476        9.0884677945
 Ca         3.4203112959       42.2690233410        4.2702287118
 Ca         3.4356371155       32.8561314422        5.8184663084
 Ca         3.4534318449       23.5174108728        7.4823767665
 Ca         3.4111188921       14.4174626591        9.3540833681
  O         1.2456333621       27.3261577506        3.9992693812
  O         1.1608685099       18.7660372553        5.7454843646
  O         0.6355711088        9.7422230964        7.9205175182
  O         1.0922569624       -0.0042772363        8.9796527005
  H         0.3825541501       28.3268416283        3.8828167705
  H         0.3438779705       18.2886074883        5.8752376079
  H         0.4001409404        8.8785452038        7.2046279242
  H         0.4243549177        0.0366898589        9.7734699445
  O         3.8920985319       27.1428034047        3.7393070447
  O         4.2945600226       17.8946794877        5.8003889025
  O         4.6977646400        9.6309985542        7.8474425925
  O         4.5758755013        0.0169531206        9.1268662384
  H         3.8944318812       28.0740880780        4.3177046164
  H         4.1290399142       18.8651176171        5.8097456445
  H         3.7449245896        8.8320215197        7.7617482322
  H         3.8132886023       -0.0354470629        9.7925041231
  O        12.7584939019       27.8020566851        4.0361395193
  O        12.9434527575       17.9587808681        5.7946958638
  O        12.5754476520        9.6476770901        7.1124318554
  O        12.7214381900        0.0211498193        8.9427410051
  H        13.7223863235       27.6035875906        4.0632684451
  H        13.0629610156       18.9690204266        5.8166686562
  H        13.4527550796        9.0127305866        8.0873561288
  H        13.3385286600       -0.1121392347        9.8954024926
  O         2.1802100832       27.8061889525        4.6485136596
  O         2.3035163325       18.1026016487        5.7902525684
  O         2.4434531058        9.2628108497        7.8247152089
  O         2.3010753284       -0.0081429924        9.0257294539
  H         3.1367974267       27.7467192246        3.5263414404
  H         3.0632902449       18.6235232466        5.8404083140
  H         3.2478678106        9.3147875190        7.2066973993
  H         3.0109220989        0.0131918025        9.7999891529
  O         7.2942683043        2.6759103700        3.3926925556
  O         7.3583572442       36.7884060885        5.1507953794
  O         7.3349276728       27.5017678303        6.9356957836
  O         7.3928193414       18.2144706956        8.5824298840
  O         7.3343490382       16.0693730453        4.1688070417
  O         7.3604800911        6.8794831385        5.9251807927
  O         7.2998793950       40.7213277980        7.6877105322
  O         7.3010664502       31.4684968551        9.4757765778
  O         7.3249374550       30.4043993663        2.8270661851
  O         7.3863605596       21.1312805453        4.6310713588
  O         7.3546565015       11.9133544995        6.3821053239
  O         7.3408250132        2.6272289319        8.1270210558
  O        10.8101183336       18.7556970365        3.1141596030
  O        10.8192017466        9.6343703162        4.9223170108
  O        10.8002593804        0.2197698347        6.4381699150
  O        10.7187864076       34.2996200603        8.2355898889
  O        10.8058694439        5.3972629464        2.1545997799
  O        10.7520749010       39.4063225874        3.9391705475
  O        10.8068239890       30.1082247034        5.7137709784
  O        10.7803949041       20.9093828649        7.4870199918
  O        10.8036332668       34.4483588614        3.4919618292
  O        10.8049408575       25.1128915929        5.3283084029
  O        10.7832969635       15.8630467937        7.0579223840
  O        10.7815261085        6.6288483684        8.8015730937
  O        13.2648760344       18.7601384953        3.1056043765
  O        13.2615040142        9.6377074846        4.8854415401
  O        13.2771018566        0.2198876113        6.4347366397
  O        13.3575702387       34.2997481102        8.2355885084
  O        13.2708381832        5.3973483341        2.1550140077
  O        13.3247396122       39.4063467931        3.9394197670
  O        13.2705265940       30.1192225715        5.7178121895
  O        13.2995349891       20.9014808006        7.4799470745
  O        13.2732481557       34.4478812378        3.4920518038
  O        13.2746606898       25.1195684786        5.3214097224
  O        13.2929086134       15.8552820049        7.0622433145
  O        13.3045772134        6.6395279078        8.8017998388
  O         9.9029815791        2.6765057103        3.3926841086
  O         9.8387889792       36.7885526347        5.1507193172
  O         9.8644510424       27.5001672241        6.9462318258
  O         9.8054461384       18.2129124681        8.5799173621
  O         9.8539776916       16.0757646243        4.1753182185
  O         9.8425472998        6.8841463636        5.9298154036
  O         9.8968393297       40.7212544563        7.6872993050
  O         9.8958484411       31.4687787767        9.4758867093
  O         9.8730214821       30.4064410017        2.8235857660
  O         9.8099909204       21.1413928799        4.6272711585
  O         9.8422486908       11.9182208378        6.3768279376
  O         9.8568034135        2.6258559036        8.1257204460
  O         8.5990854995        0.3696114198        3.6797323290
  O         8.5990818897       34.5324088188        5.4541735412
  O         8.5985656538       25.2687556682        7.2445943197
  O         8.5989531920       15.9507089003        9.0156455716
  O         8.5991209191        2.4002520494        5.4780027382
  O         8.5990158012       36.3794231031        7.3290117609
  O         8.5982471006       27.1210875028        9.1115624575
  O         8.5992617910       17.7971085155       10.9848049034
  P         8.5989543922        2.1502377848        3.9123485997
  P         8.5989028309       36.0839307985        5.7696747123
  P         8.6026362027       26.8266015745        7.5849049083
  P         8.5974669503       17.6181881961        9.4315929024
 Ca         8.5989261744       38.5956335751        4.0925621410
 Ca         8.5988565475       29.6680317471        5.7700347942
 Ca         8.6022965912       20.0867464930        7.6199024190
 Ca         8.5906265048       10.8585098505        9.3350244046
  O         8.5987849172       17.0081624312        2.0920025117
  O         8.6003468027        7.8213978489        3.8957528159
  O         8.5990364134       41.6326198011        5.6483500565
  O         8.5990635136       32.3864272973        7.4336174842
  O         8.5994709188       14.2965288726        2.7885186300
  O         8.6009603290        5.2116872392        4.5169638395
  O         8.5988843466       39.1469380864        6.2781975915
  O         8.5989883586       29.8890726207        8.0551571311
  P         8.5888186757       15.9211850065        3.1982650827
  P         8.5893439588        6.7209693326        4.9238431123
  P         8.5991837959       40.6551694398        6.8707660654
  P         8.5989431914       31.3612092054        8.6574255802
 Ca         8.5989740308       34.2509062823        2.8099772369
 Ca         8.6021337191       25.1747488714        4.5694003868
 Ca         8.5957715990       16.1617839681        6.3236492598
 Ca         8.5982472712        6.3923314244        8.1902666854
  O         8.5994518497       31.7767824574        4.5573292030
  O         8.5982860383       22.5156500600        6.4286737812
  O         8.5983732709       13.2659189746        8.1916230134
  O         8.5991661668        3.9887852855        9.9448980701
  O         8.5987662696       32.5291980915        2.0767539572
  O         8.5974217426       23.3135674578        3.9169264882
  O         8.5981315138       13.9495051720        5.6623306524
  O         8.5992596998        4.6203194422        7.3925356309
  P         8.6021023474       31.2548568511        2.9908363417
  P         8.6030573734       22.0225936151        4.8105012815
  P         8.6015623608       12.7231628255        6.6283220794
  P         8.5986283830        3.5048588426        8.5881054179
 Ca         8.5905935207       19.2382022350        3.0000719047
 Ca         8.5961444450        9.4007219194        4.9138106108
 Ca         8.5991533159        1.0188946001        7.1297433633
 Ca         8.5989506599       34.1653924481        8.8231089446
  O        12.0372622043       20.9643605067        2.6979244396
  O        12.0371179259       11.9833423566        4.4021983691
  O        12.0378681739        2.4599884927        6.1617088080
  O        12.0379409320       36.4774453268        7.9390601016
  O        12.0371650220       19.1937566018        0.7931178196
  O        12.0368049717       10.0484025002        2.3731670308
  O        12.0377375046        0.5997915235        4.2173326271
  O        12.0379747056       34.6113665002        6.1507372993
  P        12.0405790651       19.4786056690        2.2628274816
  P        12.0412098188       10.1055121822        3.9692649145
  P        12.0382581801        0.9392928757        5.8661590194
  P        12.0379588735       34.8970309208        7.7243108090
 Ca        12.0416219948       25.8751046303        2.3178331612
 Ca        12.0484982105       17.0620566858        3.5883439587
 Ca        12.0498499670        7.4219196398        5.6269623346
 Ca        12.0307409494       41.7492550327        7.5883827230
  O        12.0381039729        4.5728591814        4.2361943868
  O        12.0379686155       38.5482953013        6.0090739013
  O        12.0379082865       29.2573386691        7.7737344218
  O        12.0391433548       19.9974971074        9.5302438843
  O        12.0381947979        7.0791682681        3.6179790571
  O        12.0380475121       41.0250816707        5.3460971500
  O        12.0364705112       31.8111651538        7.1210227942
  O        12.0394821616       22.6808799433        8.8483104305
  P        12.0382006973        5.7040055310        3.0003843635
  P        12.0380480100       39.5749217945        4.7765690143
  P        12.0419960022       30.3472780473        6.5986264531
  P        12.0306460498       21.0687416734        8.4411487606
 Ca        12.0399773377       30.5444612537        3.4696358426
 Ca        12.0330207093       21.0024270690        4.9644628414
 Ca        12.0303537449       11.5831697826        6.8322209432
 Ca        12.0379358290        2.7481295866        8.8702853264
  O        12.0380744079       33.0263625012        1.6863036632
  O        12.0381107205       23.9243375602        3.3578965815
  O        12.0375722954       14.4809484481        5.2700506268
  O        12.0395926640        5.2409563868        7.0588403769
  O        12.0380253067       32.4090870576        4.2348078379
  O        12.0392016632       23.0987779532        5.9871545460
  O        12.0373760305       13.7916774203        7.8000683241
  O        12.0396723773        4.5390597235        9.5237198329
  P        12.0380329380       33.5195592304        3.0341323646
  P        12.0337873229       24.2693058593        4.8902790702
  P        12.0415602355       15.0254008138        6.7012768695
  P        12.0453203728        5.7914542687        8.5972168139
 Ca        12.0381081258        2.9551030499        2.8556125639
 Ca        12.0380610888       36.0197903299        4.5011448435
 Ca        12.0412041673       27.0478953407        6.2638150038
 Ca        12.0342527533       18.0050617471        8.3719905104
 Ca         6.8985037381       42.2692642760        4.2714124683
 Ca         6.8832445210       32.8546031403        5.8183745515
 Ca         6.8659327404       23.5131642662        7.4830122716
 Ca         6.9079361354       14.4172797328        9.3549048204
 Ca        10.3197448053       13.3744220047        4.0509138725
 Ca        10.3186914356        4.2109400481        5.7957226937
 Ca        10.3333687217       38.0351668575        7.4791376694
 Ca        10.3041361692       28.9879293079        9.0884650070
 Ca        13.7569493457       13.3752400146        4.0503367575
 Ca        13.7614298728        4.2159586800        5.8013644341
 Ca        13.7427306596       38.0349953834        7.4790046327
 Ca        13.7717047241       28.9890541284        9.0892818778
 Ca        10.2992228950       42.2690798646        4.2703552530
 Ca        10.3145496352       32.8558292150        5.8184431755
 Ca        10.3322341869       23.5148722667        7.4829433397
 Ca        10.2884562513       14.4168867907        9.3544552809
  O         8.1211373641       27.3293074560        4.0018055477
  O         7.8282201317       17.9617965496        5.8500950932
  O         7.7847176494        9.3109639544        7.8749978320
  O         7.9795071175        0.0256720424        8.9867392960
  H         7.2861793119       28.3415253775        3.8840992487
  H         7.4614227467       18.9069357529        5.7943824791
  H         7.0695071402        9.2273399865        7.1692744266
  H         7.2925591068        0.0258866369        9.7649689563
  O        10.7671497901       27.1576181054        3.7882466595
  O        11.4695739244       18.6348696382        6.1582156933
  O        11.5523833884        9.6597909545        7.7487795123
  O        11.4508909993        0.0213650950        9.1049366969
  H        10.7861691767       28.0975190568        4.3183434679
  H        10.7340344607       18.4647799514        5.5665426822
  H        10.6125965552        9.0190610103        7.8527567517
  H        10.6973689226       -0.0509177715        9.8107700317
  O         5.8956239974       27.7823767453        4.0384267148
  O         5.8006318913       18.6648171577        6.2883858125
  O         5.6445878713        9.8038753439        7.0762197870
  O         5.8453456417        0.0275996814        8.9228343543
  H         6.8418394838       27.6478535946        4.0849487805
  H         6.4066837564       18.4391355883        5.4686645457
  H         6.6139705008        8.7711863366        8.1042195467
  H         6.4601349803       -0.1185467130        9.9077462066
  O         9.0494155696       27.7993382699        4.6520671953
  O         9.0978017657       18.5999174736        5.7841196757
  O         9.6391830083        9.8030427447        7.9309354365
  O         9.1783011308       -0.0510465376        9.0192665460
  H        10.0346671399       27.7481017530        3.5355030242
  H         9.9525218795       18.5014816800        5.8696138454
  H         9.9278934641        8.9317834931        7.1940685180
  H         9.8962194613        0.0339659844        9.7954287737
  O         7.1488252216       21.6696235316       17.8285530767
  C         7.2979380163       22.8662623652       17.8606770896
  O         7.4390392241       23.9591872621       17.8972869042
     387
 i =       11, E =     -6917.2717753391
  O         0.4379502449        2.6833639811        3.3892495927
  O         0.4785454605       36.7861602061        5.1497636591
  O         0.4520513859       27.5012907758        6.9468503163
  O         0.5330574069       18.2026575079        8.6071105288
  O         0.4693879857       16.0647961449        4.1622610777
  O         0.4917083249        6.8898518333        5.9395832308
  O         0.4316314406       40.7232338794        7.6884810451
  O         0.4402292279       31.4791744104        9.4766673767
  O         0.4454924038       30.4047048349        2.8283944059
  O         0.5121130658       21.1522530186        4.6258849994
  O         0.4660543652       11.9242543046        6.3785255691
  O         0.4639959857        2.6310473041        8.1237814742
  O         3.9491784248       18.7717293769        3.0822552807
  O         3.9610778513        9.6320831264        4.8914677321
  O         3.9160699551        0.2294039797        6.4248664832
  O         3.8689239038       34.2919271433        8.2359465092
  O         3.9295955740        5.3918482016        2.1500837574
  O         3.8800261681       39.4137966031        3.9347963781
  O         3.9308616329       30.1102614929        5.7125603445
  O         3.8979085596       20.9110412787        7.4825464001
  O         3.9334534260       34.4271261687        3.4871658273
  O         3.9295669828       25.1086814816        5.3253155566
  O         3.9008434937       15.8373752622        7.0840265504
  O         3.8835172573        6.6300188219        8.7961490845
  O         6.3753597729       18.7656229875        3.0992550384
  O         6.3693968220        9.6341084403        4.8371804604
  O         6.4043572906        0.2291312301        6.4189391728
  O         6.4494314636       34.2920001938        8.2359758454
  O         6.3891317800        5.3922351904        2.1504867079
  O         6.4386629501       39.4138060610        3.9352147364
  O         6.3908479963       30.1268909874        5.7205018780
  O         6.4217401103       20.9320302795        7.4961852650
  O         6.3851572051       34.4266977203        3.4872709946
  O         6.3910959893       25.1186196276        5.3140402264
  O         6.4152049029       15.8536535006        7.0723995987
  O         6.4222332814        6.6358171417        8.7957719493
  O         3.0010747226        2.6836935187        3.3889155140
  O         2.9606999118       36.7862219646        5.1496469172
  O         2.9947269538       27.4992275845        6.9674053163
  O         2.9063462701       18.2050053668        8.6106738568
  O         2.9838690849       16.0580390142        4.1558804392
  O         2.9426613222        6.8800447684        5.9319443815
  O         3.0067587780       40.7236692321        7.6885734156
  O         2.9989777655       31.4791051442        9.4766947243
  O         2.9959293087       30.4077635392        2.8245689268
  O         2.9253820062       21.1364545325        4.6324116707
  O         2.9691955247       11.9155170284        6.3864948507
  O         2.9746939678        2.6306435279        8.1240370080
  O         1.7200817484        0.4126520891        3.6826805647
  O         1.7201267769       34.5377571718        5.4598114958
  O         1.7191554441       25.2672974459        7.2571065004
  O         1.7205168884       15.9880584475        9.0285732702
  O         1.7198529369        2.3976976548        5.4552031832
  O         1.7200426297       36.3788084899        7.3104481807
  O         1.7183534871       27.1281681417        9.0953369939
  O         1.7198086467       17.7820072207       10.9192265349
  P         1.7198809707        2.1252245928        3.9071614225
  P         1.7198619626       36.0798382873        5.7775156760
  P         1.7249883651       26.8246275506        7.5864510424
  P         1.7213232698       17.6174752595        9.4544369385
 Ca         1.7199696611       38.5863012441        4.0631602046
 Ca         1.7195005639       29.6533414610        5.7633245614
 Ca         1.7140369209       20.0855368315        7.6184834528
 Ca         1.7479288287       10.8460589548        9.3216904004
  O         1.7207939513       16.9873846380        2.1007121387
  O         1.7182302512        7.7484334607        3.8788492257
  O         1.7201164052       41.6173422397        5.6553464649
  O         1.7202987448       32.3748285247        7.4447612937
  O         1.7196253352       14.3296934746        2.7839610479
  O         1.7161926238        5.2258713894        4.5235198663
  O         1.7200736923       39.1449586018        6.2863709119
  O         1.7203427723       29.9030063966        8.0529866213
  P         1.7313481015       15.9026883849        3.1971689669
  P         1.7323398562        6.6951726851        4.9289953435
  P         1.7197065508       40.6548456572        6.8782175375
  P         1.7199395096       31.3489018120        8.6502562520
 Ca         1.7199357378       34.3229961050        2.8406839463
 Ca         1.7285189931       25.2237150527        4.5968058132
 Ca         1.7248188765       16.1373899272        6.3234728120
 Ca         1.7296284316        6.4751106056        8.1591269471
  O         1.7206717456       31.7797097164        4.5401249562
  O         1.7209762459       22.5180181086        6.3978500922
  O         1.7214076538       13.2592293529        8.2061445668
  O         1.7195444163        4.0162905197        9.9489622726
  O         1.7194140031       32.4413446364        2.0627069267
  O         1.7218746755       23.2435381692        3.9232521730
  O         1.7217239198       13.9457610550        5.6589052486
  O         1.7190225490        4.5670724659        7.3737802569
  P         1.7241683634       31.2462189166        3.0166202626
  P         1.7145567196       22.0263720439        4.8165066281
  P         1.7177281645       12.7222258867        6.6254812496
  P         1.7202176258        3.4781355381        8.5685380279
 Ca         1.7302509613       19.2392838327        2.9871544485
 Ca         1.7231318662        9.4337083668        4.9554855560
 Ca         1.7217337173        1.0159285952        7.1242817620
 Ca         1.7199094016       34.1668204400        8.8350277488
  O         5.1602746733       20.9604972119        2.6861003140
  O         5.1576797537       11.9477095715        4.3896680279
  O         5.1586782100        2.4504108617        6.1509656990
  O         5.1589132702       36.4460975271        7.9330640630
  O         5.1613900956       19.1915086783        0.8101815541
  O         5.1561547113       10.0379366015        2.4458604311
  O         5.1583957781        0.6228917359        4.2620028416
  O         5.1588959483       34.6106593376        6.1684962299
  P         5.1527829685       19.4834346114        2.2719191138
  P         5.1634684408       10.1497171175        3.9561480228
  P         5.1591575281        0.9486952637        5.8389287323
  P         5.1589532068       34.9151552148        7.7318861083
 Ca         5.1591267002       25.8925518336        2.3404159532
 Ca         5.1473029856       17.0137010972        3.6455932148
 Ca         5.1480934961        7.4447956636        5.6561713523
 Ca         5.1444105555       41.7111203898        7.5624074324
  O         5.1586649237        4.5858319336        4.2432567325
  O         5.1589195203       38.5560428561        6.0066905800
  O         5.1585058408       29.2754777439        7.7637094133
  O         5.1569072623       20.0235696855        9.5264702557
  O         5.1586871236        7.0815570444        3.5979083510
  O         5.1590296855       41.0230730490        5.3385694394
  O         5.1557131720       31.7931576727        7.1172185902
  O         5.1560551158       22.6463777888        8.8415763485
  P         5.1592647496        5.7110095285        2.9861339739
  P         5.1590670495       39.5770536786        4.7743143354
  P         5.1651436188       30.3546408098        6.6012515781
  P         5.1685860308       21.0809618107        8.4409256463
 Ca         5.1641439149       30.4961513956        3.4478271714
 Ca         5.1661729821       20.9702108764        4.9547400109
 Ca         5.1269737519       11.6533293071        6.8069202495
 Ca         5.1583509934        2.7104372984        8.8488113094
  O         5.1590011098       33.0121228679        1.6959674979
  O         5.1592228480       23.9199715203        3.3971695289
  O         5.1598625144       14.4857691813        5.2538669053
  O         5.1587230285        5.2394809893        7.0714509276
  O         5.1589629570       32.4608759884        4.2363771349
  O         5.1601435230       23.1039221696        5.9627394594
  O         5.1609026428       13.7909824063        7.8112800808
  O         5.1608006439        4.5821634042        9.5339146578
  P         5.1591634190       33.5531353748        3.0500714582
  P         5.1555872207       24.2787262328        4.8858543981
  P         5.1552006382       15.0374251127        6.6993033387
  P         5.1430033411        5.8064133885        8.5924923731
 Ca         5.1589888302        2.9498142955        2.8306773917
 Ca         5.1591070265       36.0360336361        4.5086798104
 Ca         5.1658949435       27.0525967421        6.2494993187
 Ca         5.1647303021       17.9874522819        8.3579308452
 Ca         0.0215552364       42.2675807946        4.2695416259
 Ca        -0.0020099971       32.8586724715        5.8197537025
 Ca        -0.0218598943       23.5250809787        7.4944896855
 Ca         0.0375653341       14.4265456966        9.3330163384
 Ca         3.4465482180       13.3999677573        4.0609818613
 Ca         3.4307080409        4.2101672458        5.7980637507
 Ca         3.4595279818       38.0286335530        7.4901786855
 Ca         3.4145068329       28.9719430075        9.0964181855
 Ca         6.8702546237       13.3978633385        4.0618903585
 Ca         6.8827237662        4.2043269673        5.7907350477
 Ca         6.8585202137       38.0284710331        7.4900034567
 Ca         6.9038169103       28.9731006920        9.0968026772
 Ca         3.4183110657       42.2674580565        4.2684222674
 Ca         3.4415573888       32.8606295769        5.8196825380
 Ca         3.4614230582       23.5272018676        7.4926488757
 Ca         3.4026188939       14.4282003011        9.3316517958
  O         1.2619824501       27.3356935470        3.9217705549
  O         1.2058668934       18.8874765728        5.7162703424
  O         0.6050796231        9.6886859086        7.9202340812
  O         1.0425759142       -0.0100065081        8.9538639140
  H         0.4082125904       28.3565461560        3.8715404547
  H         0.3633244937       18.2226905524        5.8980444094
  H         0.4564647908        8.9020057184        7.2058839161
  H         0.4776117063        0.0480198734        9.8079261700
  O         3.8976042374       27.1290713430        3.7153230770
  O         4.2818146553       17.8743286543        5.7916312260
  O         4.6972466373        9.6279001763        7.9310672005
  O         4.6098756278        0.0303578817        9.0891748952
  H         3.9658822736       28.0433651634        4.3087289121
  H         4.2517175931       18.8714160243        5.8020549371
  H         3.7576828603        8.8001729736        7.7925411927
  H         3.8752562716       -0.0421249457        9.8621607453
  O        12.6848907895       27.8282976302        4.0337684031
  O        12.9817150793       17.9623145042        5.7857286414
  O        12.5663059363        9.6008083116        7.0341841570
  O        12.7227666085        0.0421052077        8.9367142347
  H        13.6980649668       27.5451041676        4.0880036219
  H        12.9490843855       18.9586678437        5.8079613439
  H        13.4676336714        9.0380250173        8.0899640992
  H        13.2665029567       -0.1170956408        9.9356202598
  O         2.1502540641       27.8704932259        4.7526990092
  O         2.2662088803       18.0199973114        5.7788482068
  O         2.4111619816        9.2317513847        7.8299510151
  O         2.3375782380       -0.0141462242        8.9949580291
  H         3.1143176315       27.7388854754        3.5151125534
  H         3.0377697523       18.6722892044        5.8478288448
  H         3.2192411386        9.3547071388        7.1543201834
  H         2.9483904823        0.0168447678        9.8517459952
  O         7.3169531517        2.6827204215        3.3891118053
  O         7.3575390053       36.7861351928        5.1498160076
  O         7.3309909155       27.5012584244        6.9477468902
  O         7.4142909044       18.2020355781        8.6180424094
  O         7.3317819728       16.0602863887        4.1576070566
  O         7.3702580160        6.8826579677        5.9205141570
  O         7.3109212891       40.7237820797        7.6886956934
  O         7.3191221155       31.4790116958        9.4765219228
  O         7.3244805085       30.4046710368        2.8286875393
  O         7.3939939372       21.1355990354        4.6314601103
  O         7.3471371421       11.9177656183        6.3860093033
  O         7.3433708413        2.6317589097        8.1239739858
  O        10.8215837094       18.7682314627        3.0913283552
  O        10.8411107938        9.6290708653        4.8876778311
  O        10.7950682750        0.2294883301        6.4244061203
  O        10.7478463057       34.2919513045        8.2359898325
  O        10.8082897653        5.3943376483        2.1507999377
  O        10.7591257939       39.4138347400        3.9348237746
  O        10.8098500885       30.1109550328        5.7124666246
  O        10.7779817609       20.9288814367        7.4957998134
  O        10.8125423697       34.4271291646        3.4871779137
  O        10.8091181826       25.1078560041        5.3247961808
  O        10.7818448268       15.8561435717        7.0730059464
  O        10.7735108881        6.6313515993        8.7949106429
  O        13.2512942967       18.7753160917        3.0780922262
  O        13.2462589588        9.6322882868        4.8387248821
  O        13.2829554324        0.2293033805        6.4197363198
  O        13.3285011831       34.2919935734        8.2359941358
  O        13.2684112775        5.3945470417        2.1512769274
  O        13.3176839649       39.4138607899        3.9352332866
  O        13.2699796503       30.1268570957        5.7204088089
  O        13.2983777680       20.9125815795        7.4849511735
  O        13.2642675195       34.4266882108        3.4872470879
  O        13.2707410156       25.1198938078        5.3120997619
  O        13.2958024085       15.8398606311        7.0831417382
  O        13.3154275348        6.6429180673        8.7948822869
  O         9.8803248438        2.6834925966        3.3890497157
  O         9.8396860073       36.7862296182        5.1497020274
  O         9.8736508531       27.4994268274        6.9679534392
  O         9.7853018730       18.1999110704        8.6119657766
  O         9.8521615051       16.0699838140        4.1680167060
  O         9.8335961309        6.8915454706        5.9283932662
  O         9.8861042342       40.7230359883        7.6880443328
  O         9.8777998459       31.4793615135        9.4767634132
  O         9.8750514269       30.4078283282        2.8244201461
  O         9.8037447062       21.1498314130        4.6254905592
  O         9.8520498467       11.9264602833        6.3753963164
  O         9.8545832924        2.6291119139        8.1235830140
  O         8.5992101210        0.4124818250        3.6826476031
  O         8.5991437735       34.5377939123        5.4598522810
  O         8.5982049822       25.2674887271        7.2575006229
  O         8.5990147924       15.9846048819        9.0282560449
  O         8.5991978550        2.3975306334        5.4550997717
  O         8.5990320614       36.3788661498        7.3104793178
  O         8.5970826058       27.1284410214        9.0954574501
  O         8.5996636948       17.7812278427       10.9208807085
  P         8.5988968159        2.1250698455        3.9071970165
  P         8.5988704391       36.0798299734        5.7775043157
  P         8.6041170905       26.8246457214        7.5861820610
  P         8.5963881772       17.6201853632        9.4557280183
 Ca         8.5988829201       38.5862468836        4.0628969547
 Ca         8.5990360529       29.6521190752        5.7630605231
 Ca         8.6057679953       20.0822501180        7.6176537215
 Ca         8.5843531373       10.8651946859        9.3290018057
  O         8.5983325697       16.9871358579        2.1015951680
  O         8.6014070947        7.7509541486        3.8765434534
  O         8.5990894472       41.6173969536        5.6553198921
  O         8.5991481712       32.3749469610        7.4447858841
  O         8.5998720570       14.3343777643        2.7850246525
  O         8.6028832614        5.2241535033        4.5227036975
  O         8.5988076963       39.1448296117        6.2862794216
  O         8.5990978544       29.9031329508        8.0532649449
  P         8.5873210446       15.9024096390        3.1956192181
  P         8.5858035099        6.6957267989        4.9241186281
  P         8.5989644184       40.6549536061        6.8783667357
  P         8.5988879935       31.3487887768        8.6502988145
 Ca         8.5989391819       34.3233631559        2.8407679366
 Ca         8.6059715359       25.2242890768        4.5972035681
 Ca         8.6043613871       16.1187257985        6.3329372996
 Ca         8.5967811685        6.4437850252        8.2297481254
  O         8.5997534751       31.7797111771        4.5401037481
  O         8.5976985962       22.5181274579        6.3960757316
  O         8.5980108396       13.2598584213        8.2064274370
  O         8.5993355200        4.0035098521        9.9555444174
  O         8.5984374402       32.4414039401        2.0626967050
  O         8.5956114467       23.2440000849        3.9229680394
  O         8.5971467089       13.9472764916        5.6583453648
  O         8.5996511048        4.5672746780        7.3735897809
  P         8.6033603546       31.2466703779        3.0164866403
  P         8.6050396889       22.0284436346        4.8168340905
  P         8.6014510120       12.7199274179        6.6255580870
  P         8.5981964548        3.4741621361        8.5699394694
 Ca         8.5907732492       19.2424840831        2.9843696492
 Ca         8.5942186414        9.4454915239        4.9370787338
 Ca         8.6003492520        1.0157250019        7.1244704689
 Ca         8.5989192113       34.1666164112        8.8350040658
  O        12.0365066331       20.9609694484        2.6862254993
  O        12.0363692104       11.9416150347        4.3908730635
  O        12.0378596978        2.4506140564        6.1510401157
  O        12.0378775656       36.4460866405        7.9330858288
  O        12.0360214621       19.1922716260        0.8081978795
  O        12.0352606592       10.0379189514        2.4460299640
  O        12.0375316210        0.6231016944        4.2619720472
  O        12.0379212426       34.6106867471        6.1685292309
  P        12.0427975826       19.4850486538        2.2724065848
  P        12.0417313796       10.1511748597        3.9546970672
  P        12.0381420327        0.9482035009        5.8385377216
  P        12.0379454110       34.9152026866        7.7318409192
 Ca        12.0440134981       25.8892515127        2.3410952563
 Ca        12.0560515936       17.0340619462        3.5759821262
 Ca        12.0535590761        7.4415345465        5.6527014356
 Ca        12.0253909549       41.7103963189        7.5606416895
  O        12.0382554664        4.5867785367        4.2426433543
  O        12.0379154355       38.5561427995        6.0065718596
  O        12.0378063712       29.2755578168        7.7635570867
  O        12.0397863423       20.0230281488        9.5267891070
  O        12.0382741548        7.0814804386        3.6019704458
  O        12.0380452488       41.0231468531        5.3386061617
  O        12.0348601864       31.7933407498        7.1171464481
  O        12.0407681117       22.6470683911        8.8419762328
  P        12.0381421055        5.7109306187        2.9862015066
  P        12.0381393475       39.5768869302        4.7744071088
  P        12.0440715695       30.3547344039        6.6011971529
  P        12.0293787594       21.0813802525        8.4398522005
 Ca        12.0426355227       30.4968261141        3.4485253482
 Ca        12.0289723341       20.9837757402        4.9593320165
 Ca        12.0228075850       11.6106147543        6.8143464602
 Ca        12.0376825219        2.7116990251        8.8483582184
  O        12.0380651886       33.0121171284        1.6960005976
  O        12.0380699811       23.9225023104        3.3961848307
  O        12.0370622199       14.4712163409        5.2646333083
  O        12.0410498992        5.2408151225        7.0725492697
  O        12.0380223391       32.4611570223        4.2364229108
  O        12.0403531725       23.1057986040        5.9634392023
  O        12.0363213591       13.7883106490        7.8121312288
  O        12.0412767891        4.5849681371        9.5341723878
  P        12.0380406365       33.5531851026        3.0500304541
  P        12.0330660225       24.2783267520        4.8865571279
  P        12.0429312913       15.0316606020        6.7040455613
  P        12.0454364279        5.8071948698        8.5911352966
 Ca        12.0382085272        2.9509584923        2.8298918314
 Ca        12.0381687865       36.0360399253        4.5086945330
 Ca        12.0440749686       27.0531658822        6.2502144693
 Ca        12.0327233358       17.9940723519        8.3596460341
 Ca         6.9003619550       42.2677588884        4.2697316191
 Ca         6.8771811483       32.8586288985        5.8196271811
 Ca         6.8577516711       23.5218205262        7.4941207928
 Ca         6.9167722534       14.4284746183        9.3331197962
 Ca        10.3183393527       13.3809465179        4.0643710742
 Ca        10.3136251886        4.2005970573        5.7906610517
 Ca        10.3385644043       38.0286192242        7.4900062686
 Ca        10.2940000616       28.9702785153        9.0966368535
 Ca        13.7591533735       13.3824270693        4.0631934127
 Ca        13.7674300112        4.2065713819        5.7978501689
 Ca        13.7376167104       38.0284089391        7.4898528834
 Ca        13.7818726556       28.9719968507        9.0976686659
 Ca        10.2971857251       42.2675049746        4.2685317261
 Ca        10.3204901765       32.8603629263        5.8196882129
 Ca        10.3403960930       23.5238583184        7.4936262696
 Ca        10.2804343091       14.4273326260        9.3327923139
  O         8.1339639779       27.3416204801        3.9213043171
  O         7.7794996958       17.9364853507        5.8555575147
  O         7.7797039447        9.2602157793        7.9117950701
  O         7.9288176037        0.0389131995        8.9600138137
  H         7.3224113528       28.3744157728        3.8668863852
  H         7.5361686158       18.9359906059        5.7954681585
  H         7.0839806247        9.2386627402        7.1251638908
  H         7.3428607898        0.0320821981        9.8007428534
  O        10.7791596032       27.1454009800        3.7708854169
  O        11.4738337945       18.6785307733        6.2153971872
  O        11.5646566351        9.6817995932        7.8253947425
  O        11.4818960657        0.0388918501        9.0724465197
  H        10.8591964154       28.0700329329        4.3125793892
  H        10.8220745780       18.4503525067        5.4930495864
  H        10.6359503983        9.0251090716        7.8775996597
  H        10.7609584648       -0.0607824614        9.8790887889
  O         5.8124851013       27.8028777114        4.0389117148
  O         5.7964574560       18.6855716295        6.3233546569
  O         5.6290363809        9.7746869952        6.9990654023
  O         5.8458882150        0.0511400820        8.9163525088
  H         6.8156015006       27.5884529544        4.1147854897
  H         6.3167367800       18.4236570160        5.4351822117
  H         6.6694175821        8.7549431106        8.1147926391
  H         6.3903901220       -0.1226436312        9.9484475703
  O         9.0210597588       27.8628308334        4.7598075924
  O         9.0067040338       18.6737596211        5.7468457502
  O         9.6224761465        9.7865641115        7.9080690744
  O         9.2186486730       -0.0886653165        8.9886498572
  H        10.0136039753       27.7413230764        3.5251933827
  H         9.9710839908       18.4780299570        5.9213891408
  H         9.8650960838        8.9585241609        7.1880734476
  H         9.8363878059        0.0471460432        9.8443553948
  O         7.1352486839       21.6650174916       17.8277133691
  C         7.2962618772       22.8629085523       17.8605297200
  O         7.4535011216       23.9701645241       17.8998020020
     387
 i =       12, E =     -6917.8273426693
  O         0.3703761276        2.6028002463        3.3784715245
  O         0.4754948513       36.8029930608        5.1508543471
  O         0.4509568422       27.5007741698        6.9671947088
  O         0.5427503256       18.1930863140        8.5717687186
  O         0.4734919206       16.0158073513        4.1576175505
  O         0.5035343894        6.8987652389        5.9365512362
  O         0.3794923480       40.6575181369        7.6971223347
  O         0.4105264503       31.4239684934        9.4744636888
  O         0.4392985843       30.3953299568        2.8347325224
  O         0.4938421363       21.1442795959        4.6296401239
  O         0.4548618890       11.9280122841        6.3747294947
  O         0.4574282893        2.6322883086        8.1254499524
  O         3.9585236362       18.7821258035        3.1204881046
  O         3.9845824893        9.7173860184        4.8980805320
  O         3.9080822982        0.1950144756        6.3938803971
  O         3.8110397054       34.3540989097        8.2452164270
  O         3.9269198726        5.3328351129        2.1468005866
  O         3.8454923243       39.4186478082        3.9291191712
  O         3.9308086492       30.0949314467        5.7063044250
  O         3.8990199463       20.9285311564        7.4907876175
  O         3.9210467443       34.4792004918        3.4796994441
  O         3.9217804361       25.1012774380        5.3771499204
  O         3.8957658444       15.8068688009        7.1150215904
  O         3.8691633083        6.6554630270        8.7949765110
  O         6.3692626008       18.7703939505        3.1518249625
  O         6.3612832420        9.7200711046        4.8151125728
  O         6.4133874703        0.1946338033        6.3813919076
  O         6.5072761105       34.3543162898        8.2451601019
  O         6.3919653815        5.3336681736        2.1473259628
  O         6.4727961487       39.4186692511        3.9297655209
  O         6.4018679635       30.1296564820        5.7192982597
  O         6.4349634188       20.9745208120        7.5122723081
  O         6.3977118988       34.4784487272        3.4799061091
  O         6.4013554788       25.1195376490        5.3479854621
  O         6.4143234860       15.8362903018        7.0927727540
  O         6.4269182517        6.6658374313        8.7950023885
  O         3.0687530037        2.6034097425        3.3778379439
  O         2.9639188952       36.8031611660        5.1506625061
  O         3.0097830243       27.4994652729        7.0133455940
  O         2.8991061069       18.1991458045        8.5795680220
  O         2.9922724925       15.9999969483        4.1415779729
  O         2.9380492405        6.8803373852        5.9233403188
  O         3.0583327599       40.6579967207        7.6977882242
  O         3.0289897925       31.4241056280        9.4747437446
  O         3.0077055133       30.4017448051        2.8253852161
  O         2.9354845107       21.1092917859        4.6467303396
  O         2.9732431189       11.9150245258        6.3859760198
  O         2.9815656282        2.6317019985        8.1258463267
  O         1.7201039928        0.4171460186        3.6873312161
  O         1.7201799515       34.5563036540        5.4680033054
  O         1.7185580874       25.2743252133        7.2716271962
  O         1.7210211489       15.9443765809        9.0585077470
  O         1.7198203583        2.4005439011        5.4296752258
  O         1.7201011241       36.4004522075        7.3636280696
  O         1.7152523937       27.1590171356        9.1643033311
  O         1.7194189633       17.7699847674       10.9394086908
  P         1.7196940689        2.0714824260        3.9195482696
  P         1.7197492186       36.0650151286        5.7706800550
  P         1.7255739561       26.8169537566        7.5679956197
  P         1.7213116662       17.6106305973        9.4275811483
 Ca         1.7199522554       38.5815988807        4.1287243744
 Ca         1.7155239753       29.6991267733        5.7597195276
 Ca         1.7070864741       20.0767263400        7.6555736541
 Ca         1.7739612232       10.8368647456        9.2930410881
  O         1.7223639063       16.9782025265        2.1216172257
  O         1.7174419513        7.7428627550        3.8308775214
  O         1.7203058451       41.6017726174        5.6703820862
  O         1.7205077772       32.3599485523        7.4526054741
  O         1.7196565915       14.3010374255        2.8225194026
  O         1.7124731759        5.1967756386        4.5180549332
  O         1.7202621316       39.1345964689        6.2948065011
  O         1.7204200339       29.8827317373        8.0321123131
  P         1.7403187819       15.8945877946        3.1978005480
  P         1.7312409942        6.6509175311        4.9557028482
  P         1.7182806779       40.6327128676        6.8970065820
  P         1.7198194159       31.3489528157        8.7029961126
 Ca         1.7198197931       34.4114548031        2.8762317855
 Ca         1.7404562773       25.2482549524        4.6402106087
 Ca         1.7182561302       16.0702721355        6.3474509808
 Ca         1.7363103984        6.5641914055        8.1884189150
  O         1.7210796279       31.7978544680        4.5240720580
  O         1.7222161825       22.5255922647        6.4270638979
  O         1.7225799271       13.2387061662        8.2145842754
  O         1.7191770668        4.0229095830        9.9914721694
  O         1.7179863793       32.4339105651        2.0307766091
  O         1.7255763426       23.2556812645        3.9029152434
  O         1.7249108786       13.9331986574        5.6648335425
  O         1.7186355762        4.5156480516        7.3619191825
  P         1.7285241714       31.2157393000        2.9545472911
  P         1.7132182132       22.0026559577        4.8345251071
  P         1.7139140617       12.7363269861        6.6382924512
  P         1.7201082117        3.4700905823        8.5672200718
 Ca         1.7372406956       19.2390055535        2.9655851973
 Ca         1.7249243420        9.4931599290        4.9606169055
 Ca         1.7246771628        1.0700176288        7.0933928938
 Ca         1.7198291540       34.1512457347        8.7801383945
  O         5.1623469348       20.9620286814        2.7373412159
  O         5.1563851390       11.9390579633        4.3586946642
  O         5.1584250499        2.4358106194        6.1400178254
  O         5.1588463865       36.5364094252        7.9366261319
  O         5.1650956486       19.1843070386        0.8004793539
  O         5.1512269491       10.1162596626        2.4861532949
  O         5.1577238173        0.5764796721        4.2336820527
  O         5.1588204006       34.6064843619        6.1799786369
  P         5.1493491490       19.5021777306        2.2688654189
  P         5.1638886613       10.1332848022        3.9447465578
  P         5.1591945214        0.9723883206        5.8177767944
  P         5.1591825448       34.9099740127        7.7225113877
 Ca         5.1640533425       25.8612728721        2.3671196900
 Ca         5.1327379215       17.0453928635        3.6259065253
 Ca         5.1396640711        7.4189395818        5.6301748009
 Ca         5.1357844492       41.7244091986        7.5191816317
  O         5.1582270865        4.5898307432        4.2526114904
  O         5.1588074389       38.5618770502        5.9958227380
  O         5.1587341607       29.2578104708        7.7602976262
  O         5.1559077303       20.0055475466        9.5203479395
  O         5.1583522855        7.0918832428        3.6130620458
  O         5.1588903318       41.0243249136        5.3331685804
  O         5.1520831960       31.8201631137        7.1114932683
  O         5.1524577235       22.6810634531        8.8120721905
  P         5.1591800690        5.7283135822        2.9761465011
  P         5.1592733691       39.5726103798        4.7776439342
  P         5.1638398548       30.3705402856        6.5983653103
  P         5.1661903256       21.0863348877        8.4283752453
 Ca         5.1677708935       30.4341326183        3.4041877169
 Ca         5.1711457214       21.0170321366        4.8948818870
 Ca         5.1034671484       11.7387235357        6.7003389564
 Ca         5.1574842975        2.6858563739        8.8151945965
  O         5.1591459874       32.9967078382        1.6313894509
  O         5.1596773940       24.0099956897        3.3703817920
  O         5.1606554090       14.4849687581        5.2591988167
  O         5.1575572849        5.2344554476        7.0913711055
  O         5.1591208949       32.5158059276        4.2549205229
  O         5.1632620250       23.1198067314        5.9473407859
  O         5.1645020186       13.7990785799        7.8349187058
  O         5.1620341991        4.5950959491        9.5582657766
  P         5.1589546031       33.5642885282        3.0706627027
  P         5.1540489306       24.2712517179        4.9071417174
  P         5.1549979974       15.0417506604        6.7201032834
  P         5.1313422633        5.8090217093        8.6164846665
 Ca         5.1588321710        2.9416269023        2.8744642383
 Ca         5.1591619580       36.0239212770        4.5215666682
 Ca         5.1711667548       27.0574705569        6.2162467262
 Ca         5.1650984673       18.0438532421        8.3951160993
 Ca         0.0217302872       42.3541571491        4.3430236354
 Ca        -0.0110050480       32.8367089245        5.8256904445
 Ca        -0.0240555714       23.4407293919        7.4117183696
 Ca         0.0474018006       14.4488644496        9.2971164173
 Ca         3.4450559018       13.4185072862        4.0747289748
 Ca         3.4267668716        4.2719866433        5.7936366526
 Ca         3.4603342782       38.0296982802        7.4039904465
 Ca         3.4115489825       29.0169922586        9.0554101420
 Ca         6.8695513707       13.4133373321        4.0775142705
 Ca         6.8827988264        4.2614439494        5.7803486524
 Ca         6.8577477643       38.0297581200        7.4036167794
 Ca         6.9069836174       29.0190815235        9.0564543988
 Ca         3.4181325184       42.3539610715        4.3418980471
 Ca         3.4503486475       32.8402417304        5.8254341831
 Ca         3.4629347494       23.4445309570        7.4079897454
 Ca         3.3929564312       14.4519679213        9.2953508176
  O         1.3185494182       27.3979576359        3.7935943282
  O         1.3021837260       19.0765228237        5.6597909137
  O         0.5125050201        9.5545473002        7.9667277244
  O         0.9853516227       -0.0303711126        8.9013980157
  H         0.4616147523       28.3756404602        3.7371208723
  H         0.3853260211       18.1010918067        5.9224141719
  H         0.5634907996        8.9376233691        7.1978903492
  H         0.5974811862        0.0793446544        9.8935133791
  O         3.8715955577       27.1700321052        3.6201318943
  O         4.2667892100       17.8433072916        5.7693854714
  O         4.7825374992        9.6486421472        8.1343096043
  O         4.5040883256        0.0550094409        8.9734095352
  H         4.0886213616       27.9961694718        4.3215002763
  H         4.4232164983       18.9275024634        5.7868930514
  H         3.7929498668        8.7392353212        7.9315165126
  H         3.9735687437       -0.0674007134       10.0130644622
  O        12.6032285199       27.8566328530        4.0337801147
  O        13.1054996586       17.9354985372        5.7530992145
  O        12.4983665731        9.5147039713        6.8986983362
  O        12.8541862375        0.0683791469        8.9394178141
  H        13.7067009590       27.4359620370        4.1299423580
  H        12.8038585621       18.9648310039        5.7914723727
  H        13.4701316217        9.0438903736        8.0833648839
  H        13.1715014272       -0.1889879363        9.9952205197
  O         2.0597117401       27.9334497858        4.8766570154
  O         2.1815459097       17.9038001675        5.7469456848
  O         2.4969643787        9.2024642377        7.8922542586
  O         2.3835646936       -0.0346808764        8.9149560520
  H         3.0843527609       27.6991392221        3.5153563480
  H         2.9942205608       18.6957720917        5.8560382489
  H         3.1835681924        9.4072236319        7.0245460314
  H         2.8113690622        0.0328677812        9.9614487409
  O         7.2494260079        2.6021753708        3.3783672141
  O         7.3544773207       36.8029092389        5.1509064872
  O         7.3294959861       27.5006696946        6.9685832646
  O         7.4234145431       18.1953729508        8.5930087394
  O         7.3240984339       16.0053910918        4.1451259544
  O         7.3690834949        6.8858430799        5.9051769531
  O         7.2589315414       40.6588845521        7.6979901309
  O         7.2892191281       31.4237395170        9.4743040167
  O         7.3182999390       30.3940721806        2.8355030336
  O         7.3884630360       21.1052776919        4.6458074303
  O         7.3379592827       11.9187293591        6.3864276714
  O         7.3363977277        2.6341074563        8.1255202017
  O        10.8248004695       18.7747218377        3.1375504192
  O        10.8671990515        9.7135199534        4.8960175295
  O        10.7869390385        0.1949708885        6.3928875780
  O        10.6900252000       34.3541842233        8.2452321235
  O        10.8050898959        5.3371217940        2.1475010015
  O        10.7246782801       39.4187361089        3.9291746855
  O        10.8095245989       30.0958569806        5.7058313464
  O        10.7662960448       20.9696703004        7.5124251810
  O        10.7999073497       34.4792563689        3.4797376789
  O        10.7994630295       25.1005523306        5.3760870027
  O        10.7829110920       15.8421768345        7.0927583690
  O        10.7626086935        6.6614460169        8.7940941393
  O        13.2436014601       18.7893640811        3.1077204387
  O        13.2362313634        9.7175393223        4.8175033436
  O        13.2917001157        0.1947361796        6.3832151872
  O        13.3862437497       34.3543644429        8.2451432805
  O        13.2715486479        5.3375672956        2.1480136031
  O        13.3519363324       39.4187790071        3.9297924113
  O        13.2804519452       30.1299449765        5.7196828348
  O        13.2966570875       20.9331973392        7.4956873811
  O        13.2766498129       34.4784440669        3.4798608141
  O        13.2797193033       25.1212854813        5.3442470909
  O        13.2994122450       15.8125405586        7.1130603107
  O        13.3256265040        6.6738448267        8.7923541113
  O         9.9482192219        2.6032206330        3.3781781608
  O         9.8429123945       36.8031436056        5.1507103510
  O         9.8890585106       27.4999659489        7.0141757521
  O         9.7754793691       18.1888695754        8.5780460440
  O         9.8504585886       16.0291223812        4.1732601223
  O         9.8304552800        6.9018034581        5.9174878822
  O         9.9385749031       40.6561909919        7.6962380024
  O         9.9076916312       31.4245211291        9.4748225812
  O         9.8864783412       30.4014898161        2.8251436123
  O         9.8164795293       21.1337072799        4.6303220376
  O         9.8631694776       11.9352105660        6.3658028528
  O         9.8608672656        2.6286932445        8.1259619159
  O         8.5993744968        0.4172713360        3.6872663864
  O         8.5992133142       34.5562341571        5.4679914139
  O         8.5976154373       25.2739857813        7.2718419762
  O         8.5988277209       15.9406717030        9.0569529849
  O         8.5993841224        2.4003547627        5.4295832462
  O         8.5990423953       36.4005065428        7.3636932226
  O         8.5939449891       27.1593082952        9.1643506993
  O         8.6009761183       17.7683053846       10.9418510656
  P         8.5987085746        2.0708520691        3.9194077926
  P         8.5987390736       36.0651680360        5.7707463826
  P         8.6045366047       26.8172114763        7.5682499096
  P         8.5957214364       17.6115808452        9.4350839342
 Ca         8.5988173326       38.5815696350        4.1284031215
 Ca         8.5954714696       29.6971138729        5.7595339575
 Ca         8.6132700795       20.0732068678        7.6574486311
 Ca         8.5718093631       10.8761324183        9.3110818994
  O         8.5973231389       16.9784201322        2.1231734126
  O         8.6032073908        7.7464093224        3.8266244876
  O         8.5992410707       41.6018609571        5.6703157989
  O         8.5992371014       32.3600317960        7.4526190411
  O         8.6012984133       14.3080580871        2.8248495351
  O         8.6070302713        5.1942351200        4.5169770423
  O         8.5985760634       39.1344355254        6.2946932039
  O         8.5993905204       29.8827882449        8.0322340619
  P         8.5759920505       15.8954313547        3.1961930237
  P         8.5864488874        6.6535443872        4.9446897118
  P         8.5980543493       40.6328201864        6.8970679275
  P         8.5989099238       31.3490791214        8.7030078757
 Ca         8.5988529829       34.4121295132        2.8764186302
 Ca         8.6166469127       25.2516019210        4.6410673001
 Ca         8.6168560407       16.0524086133        6.3581842290
 Ca         8.5954934130        6.5032299917        8.3208455335
  O         8.6001198662       31.7975673732        4.5235560573
  O         8.5964516737       22.5242256708        6.4225025817
  O         8.5968255299       13.2408650472        8.2148750698
  O         8.5999364950        4.0025969693       10.0049756464
  O         8.5967559648       32.4333612231        2.0307016508
  O         8.5907693959       23.2537554561        3.9025672581
  O         8.5944184386       13.9377032280        5.6641582477
  O         8.6004168613        4.5159735241        7.3636964355
  P         8.6088153083       31.2167196323        2.9551463183
  P         8.6049667364       22.0094201819        4.8361209223
  P         8.6004658702       12.7301736805        6.6384835758
  P         8.5974521847        3.4606828208        8.5661408334
 Ca         8.5839720608       19.2451806226        2.9527038457
 Ca         8.5935657524        9.5161430368        4.9261858030
 Ca         8.6042299339        1.0684358957        7.0945223954
 Ca         8.5988741612       34.1510170223        8.7801217533
  O        12.0340865665       20.9638908747        2.7379849857
  O        12.0346439694       11.9315519971        4.3612921394
  O        12.0377649224        2.4357241767        6.1401515620
  O        12.0377850524       36.5363383921        7.9366369672
  O        12.0324548999       19.1856870732        0.7973983306
  O        12.0308184047       10.1163563802        2.4840411641
  O        12.0370178251        0.5767216763        4.2338250266
  O        12.0378146089       34.6065285017        6.1799954802
  P        12.0475378421       19.5073483415        2.2656426120
  P        12.0407561754       10.1319308271        3.9428728251
  P        12.0382664796        0.9722509149        5.8173518924
  P        12.0381995430       34.9099620251        7.7226035976
 Ca        12.0485961871       25.8590953222        2.3689488048
 Ca        12.0783772937       17.0820321809        3.4981857237
 Ca        12.0670116078        7.4138325206        5.6262388915
 Ca        12.0176192274       41.7228320433        7.5163251079
  O        12.0386591943        4.5904542900        4.2523021867
  O        12.0378477376       38.5619330309        5.9956723194
  O        12.0380076442       29.2580823933        7.7598027390
  O        12.0405484571       20.0045697068        9.5209008841
  O        12.0384926532        7.0900708516        3.6170549184
  O        12.0379848119       41.0244082497        5.3331482444
  O        12.0311152549       31.8203738240        7.1114082887
  O        12.0438584191       22.6829533147        8.8133086718
  P        12.0381009999        5.7322224309        2.9777302481
  P        12.0382388326       39.5724148762        4.7776815791
  P        12.0437716100       30.3709238471        6.5984007766
  P        12.0319425732       21.0874193815        8.4271305597
 Ca        12.0475075204       30.4351207627        3.4049323091
 Ca        12.0233762866       21.0423612215        4.9025056909
 Ca        12.0121711980       11.6549648015        6.7099085728
 Ca        12.0375211458        2.6870697860        8.8145031872
  O        12.0381111259       32.9967170798        1.6313795163
  O        12.0378049365       24.0118968227        3.3693110736
  O        12.0357340137       14.4602719025        5.2779680810
  O        12.0437234832        5.2362754303        7.0928105946
  O        12.0380229477       32.5161997543        4.2550904814
  O        12.0433660750       23.1230675056        5.9490697284
  O        12.0331198322       13.7940486583        7.8342797534
  O        12.0442855652        4.6000476265        9.5585765444
  P        12.0382683458       33.5643835387        3.0706021576
  P        12.0344745714       24.2705967886        4.9069086467
  P        12.0444411781       15.0299256755        6.7318193139
  P        12.0639833136        5.8131123250        8.6150151172
 Ca        12.0385036758        2.9431601264        2.8735615725
 Ca        12.0382837352       36.0238767489        4.5215806238
 Ca        12.0488046551       27.0583842830        6.2174493341
 Ca        12.0324378749       18.0551882224        8.3942879818
 Ca         6.9003856947       42.3543939402        4.3433383618
 Ca         6.8680928634       32.8367139648        5.8256521928
 Ca         6.8551366108       23.4378096020        7.4118595525
 Ca         6.9263800275       14.4517995954        9.2980768889
 Ca        10.3128298318       13.3807507320        4.0827541252
 Ca        10.3135228234        4.2554922275        5.7796382106
 Ca        10.3394126470       38.0298505614        7.4036643771
 Ca        10.2910694365       29.0152918055        9.0553512092
 Ca        13.7668305175       13.3845628273        4.0803082443
 Ca        13.7716911372        4.2662395944        5.7931127374
 Ca        13.7368003999       38.0296604815        7.4034483801
 Ca        13.7849886465       29.0181742916        9.0570071137
 Ca        10.2968586876       42.3539390820        4.3419435942
 Ca        10.3293843660       32.8399183983        5.8255653279
 Ca        10.3437277024       23.4399712473        7.4107900296
 Ca        10.2705954340       14.4489682331        9.2984509290
  O         8.1862401786       27.4142936242        3.7927271446
  O         7.7126105939       17.8893027979        5.8596972687
  O         7.6234269999        9.2249710340        8.0282749152
  O         7.8827863918        0.0590959541        8.8993089442
  H         7.3982301446       28.3900358451        3.7292452517
  H         7.6387012239       19.0186057243        5.7933048556
  H         7.0879605232        9.2537556245        7.0452020003
  H         7.4551548443        0.0490735143        9.8928223426
  O        10.7603059103       27.1884406392        3.6694182053
  O        11.3814605372       18.7985684540        6.4045505085
  O        11.6672341992        9.7371371760        8.0246758923
  O        11.3796285919        0.0751804768        8.9698366758
  H        10.9895627743       28.0219581384        4.3320719909
  H        10.9550161632       18.4362137061        5.3362008247
  H        10.7064670168        8.9920572762        7.9957850320
  H        10.8578007542       -0.0958280679       10.0203227284
  O         5.7022679318       27.8248276280        4.0407579053
  O         5.8543960855       18.7920120654        6.3861566384
  O         5.5681360429        9.6778999513        6.8913681932
  O         5.9791869958        0.0898978242        8.9213151388
  H         6.8135716030       27.5046896461        4.1691503385
  H         6.1454906324       18.4120203074        5.3401529600
  H         6.7440424963        8.7349247069        8.1256787500
  H         6.3000803775       -0.1995401116       10.0068519945
  O         8.9253051711       27.9203749338        4.8836398625
  O         8.9245956715       18.8031067290        5.6894054580
  O         9.6263632736        9.7169883264        7.8772464911
  O         9.2598671816       -0.1642813730        8.9137287164
  H         9.9841421960       27.7059272696        3.5298963857
  H         9.9554453271       18.4486761170        6.0116485344
  H         9.7424737813        8.9988744757        7.1685658658
  H         9.7040072067        0.0847413765        9.9456688987
  O         7.1790375980       21.6659816299       17.8264696563
  C         7.2870144306       22.8510064118       17.8599424740
  O         7.4161698450       23.9780272850       17.9039769849
     387
 i =       13, E =     -6918.1013125512
  O         0.4038706136        2.6275076372        3.3479627657
  O         0.4803946074       36.8132638788        5.1375126128
  O         0.4338530300       27.4907649725        6.9807580843
  O         0.5466127360       18.1582272286        8.6178277885
  O         0.4642302749       15.9953078115        4.1607185465
  O         0.5211361706        6.9194800259        5.9614815512
  O         0.3895013258       40.6609532045        7.7047379221
  O         0.4243491837       31.4408514253        9.4983302231
  O         0.4140347277       30.3583167544        2.8626313089
  O         0.4935838863       21.1345709508        4.6436993221
  O         0.4419693784       11.9401462925        6.3811820543
  O         0.4459781633        2.6071446787        8.1032391470
  O         3.9722763616       18.7781146622        3.0786801202
  O         3.9785170728        9.6929825973        4.8478352714
  O         3.9023867397        0.1992540587        6.3529107360
  O         3.8499167745       34.3376546861        8.2593591035
  O         3.9368130118        5.3248977567        2.1182796723
  O         3.8446481353       39.4405268540        3.9087370787
  O         3.9370036231       30.0849760590        5.7022574975
  O         3.8897945907       20.9553948902        7.4833323719
  O         3.9161300455       34.4668983318        3.5010935463
  O         3.9227795569       25.1304882257        5.3786113363
  O         3.8835553825       15.7807821178        7.1564462281
  O         3.8365935751        6.6851604566        8.7645860076
  O         6.3553194486       18.7645857391        3.1196862954
  O         6.3757702920        9.6934271943        4.7506562771
  O         6.4195679526        0.1985527363        6.3416447712
  O         6.4683256965       34.3377313374        8.2592530551
  O         6.3819776170        5.3254786933        2.1191704365
  O         6.4737563373       39.4406173113        3.9098594154
  O         6.4029603886       30.1237442544        5.7204950047
  O         6.4534217007       21.0162024137        7.5130172476
  O         6.4024799645       34.4663297513        3.5012519996
  O         6.4003857575       25.1535561640        5.3433645586
  O         6.4224725968       15.8188580195        7.1258612307
  O         6.4509645837        6.6898250389        8.7635861091
  O         3.0349937748        2.6282652534        3.3469734039
  O         2.9591258288       36.8133563483        5.1372379998
  O         3.0356234593       27.4903022549        7.0413823955
  O         2.8973582722       18.1660768160        8.6270045241
  O         3.0092285947       15.9769821564        4.1442595625
  O         2.9275959474        6.8947737430        5.9485444598
  O         3.0471677093       40.6608202406        7.7053923440
  O         3.0148805929       31.4409259308        9.4989813653
  O         3.0355985881       30.3680215347        2.8523943090
  O         2.9283961311       21.0961211165        4.6649945385
  O         2.9807624786       11.9233638151        6.3942889198
  O         2.9933325292        2.6068341317        8.1028647025
  O         1.7204632024        0.4648877139        3.6854709791
  O         1.7203668874       34.5521799131        5.4737928584
  O         1.7183989188       25.2555203090        7.3092822273
  O         1.7213071463       15.9780487948        9.0550772620
  O         1.7196908340        2.3703096856        5.4030052428
  O         1.7201580612       36.4097676192        7.3494602625
  O         1.7129989369       27.1847882075        9.1434417142
  O         1.7193419938       17.7308806844       10.9015238800
  P         1.7198187268        2.0805801133        3.8840983318
  P         1.7198564200       36.0762236611        5.7695590544
  P         1.7256621831       26.8184182736        7.5946777567
  P         1.7211048072       17.6270892673        9.4362122593
 Ca         1.7199013907       38.5731914707        4.1136379453
 Ca         1.7131394155       29.6893991487        5.7694798509
 Ca         1.7019110198       20.0802074110        7.6592375366
 Ca         1.7876869563       10.8565912974        9.2947329196
  O         1.7238614257       16.9576125414        2.1109193458
  O         1.7169764748        7.6847740197        3.8455752562
  O         1.7204885714       41.5597005364        5.6486787890
  O         1.7206684544       32.3548793909        7.4687356646
  O         1.7200265607       14.3401904108        2.8133761183
  O         1.7096469590        5.1792810014        4.5421344649
  O         1.7203186029       39.1093821664        6.3180964900
  O         1.7208056391       29.8773018568        8.0359384212
  P         1.7338322410       15.8693575854        3.1865764686
  P         1.7304922471        6.6515011136        4.9459446667
  P         1.7179956053       40.6245499486        6.9085094709
  P         1.7200310458       31.3425528968        8.6961883632
 Ca         1.7197088545       34.4297892220        2.8948428850
 Ca         1.7470558055       25.2868650754        4.6817126535
 Ca         1.7081247754       16.0068114181        6.3511367058
 Ca         1.7406827705        6.6026959490        8.1872777350
  O         1.7215494635       31.7924382523        4.5344577044
  O         1.7230564260       22.5598675232        6.3957480116
  O         1.7234356132       13.2274858428        8.2368711712
  O         1.7194317096        4.0441644316        9.9657527570
  O         1.7167237818       32.3935955138        2.0443746410
  O         1.7284595166       23.2243706138        3.9190249137
  O         1.7277498314       13.9157809432        5.6403471688
  O         1.7177358985        4.4869587552        7.3326098267
  P         1.7314856028       31.1878036136        2.9930655242
  P         1.7146014494       21.9902185973        4.8284249406
  P         1.7102944338       12.7333727108        6.6434496741
  P         1.7199144824        3.4538700451        8.5938304275
 Ca         1.7327087753       19.2642065673        2.9785354249
 Ca         1.7253130998        9.5223313989        4.9861686337
 Ca         1.7257801045        1.0485696161        7.1043503091
 Ca         1.7198340095       34.1730556040        8.8016408715
  O         5.1637911815       20.9722487756        2.7148285149
  O         5.1549829362       11.8891370358        4.3661063337
  O         5.1580950870        2.4406097743        6.1178710209
  O         5.1586921169       36.5099671200        7.9216414261
  O         5.1676757870       19.1881380371        0.8033373577
  O         5.1466318957       10.0877445319        2.5301208508
  O         5.1570941920        0.6108221538        4.2774832320
  O         5.1587182906       34.6356010404        6.2026119549
  P         5.1481986625       19.5049235341        2.2559907438
  P         5.1630554350       10.1970182263        3.9606914344
  P         5.1591677394        0.9655445838        5.8101064548
  P         5.1590504654       34.9159894624        7.7479939659
 Ca         5.1655481425       25.8979765682        2.4122465458
 Ca         5.1224117392       16.9933814718        3.6488961810
 Ca         5.1440569182        7.4594750567        5.6795277621
 Ca         5.1335617197       41.6739673918        7.4846510869
  O         5.1576859850        4.6008745636        4.2465834682
  O         5.1585909599       38.5776988587        6.0105545873
  O         5.1589465703       29.2638340130        7.7791021204
  O         5.1550995936       20.0354124457        9.5282822105
  O         5.1580369476        7.1057197669        3.5984907896
  O         5.1586736809       41.0314381181        5.3039375326
  O         5.1491327531       31.8110645408        7.1168589083
  O         5.1489652734       22.6406249369        8.7995132414
  P         5.1591632448        5.7432335383        2.9657620611
  P         5.1591629058       39.5770775231        4.7447153141
  P         5.1639979422       30.3691787881        6.5911188416
  P         5.1656419626       21.1029851281        8.4315983078
 Ca         5.1705506537       30.3921172000        3.3739704111
 Ca         5.1751862094       20.9795189808        4.9110144874
 Ca         5.0982437480       11.7417585742        6.7065030448
 Ca         5.1571623943        2.6529058778        8.7916889985
  O         5.1590636702       32.9833476726        1.6802401937
  O         5.1596185982       23.9827516380        3.4179851621
  O         5.1610389892       14.4656282150        5.2429369080
  O         5.1559558190        5.2438877787        7.1009502943
  O         5.1592287963       32.5623770936        4.2727128775
  O         5.1658961706       23.1358647277        5.9335109498
  O         5.1673941628       13.7859517607        7.8581591084
  O         5.1619049022        4.6123939233        9.5608383253
  P         5.1588349479       33.5683175504        3.0302465047
  P         5.1536749423       24.2854850789        4.9074332349
  P         5.1543878101       15.0303459521        6.7098389641
  P         5.1414865974        5.8428126773        8.6185590004
 Ca         5.1587946616        2.9426632505        2.8299561418
 Ca         5.1592756879       36.0699866935        4.5400950450
 Ca         5.1743186507       27.0761823437        6.2323315080
 Ca         5.1650692180       18.0149947126        8.3655909462
 Ca         0.0489137895       42.3275353595        4.3223844139
 Ca        -0.0300949241       32.8298711911        5.8199236890
 Ca        -0.0543249677       23.4639655225        7.4392142036
 Ca         0.0777398857       14.4864927713        9.2508251219
 Ca         3.4477241375       13.4559347409        4.0987689195
 Ca         3.4067240870        4.2512436114        5.7871512989
 Ca         3.4669860341       38.0022681112        7.4241090208
 Ca         3.3799100138       28.9776136357        9.0814683510
 Ca         6.8656252063       13.4494411363        4.1032070935
 Ca         6.9048039916        4.2423272460        5.7745885817
 Ca         6.8512314790       38.0023589016        7.4238136351
 Ca         6.9389145891       28.9802828335        9.0826434182
 Ca         3.3907050178       42.3274562495        4.3212422957
 Ca         3.4690603638       32.8336670544        5.8194775953
 Ca         3.4938332327       23.4688105162        7.4349022136
 Ca         3.3614922522       14.4895621464        9.2495972768
  O         1.3511806929       27.4126931342        3.7182921816
  O         1.3448185079       19.1460189313        5.6669571299
  O         0.5063636808        9.5053307020        7.9583816342
  O         0.9839851208       -0.0275113928        8.9225971855
  H         0.4990143360       28.3768420699        3.7432972401
  H         0.3607623267       18.0828852909        5.9081984004
  H         0.5951746342        8.9788642416        7.2129126050
  H         0.6717215072        0.0748968660        9.8876700417
  O         3.8727328174       27.1999076403        3.6302209593
  O         4.3126910826       17.8582178435        5.7574193018
  O         4.7902300367        9.6253521234        8.1610754765
  O         4.4613942501        0.0753041419        8.9870931050
  H         4.1201110908       27.9272666380        4.2775594280
  H         4.4640453384       18.8839723381        5.7759934759
  H         3.8391308395        8.7587942070        7.9532947171
  H         4.0251867069       -0.0886199970       10.0345297900
  O        12.6146097520       27.9026027823        4.0394567054
  O        13.1119146509       17.9382861323        5.7641612983
  O        12.4236224071        9.4564926994        6.8603829430
  O        12.8781826246        0.1134741990        8.9825220360
  H        13.6315048758       27.3994058073        4.1785374568
  H        12.7764667038       18.9137110026        5.7682097749
  H        13.4440501302        9.0900933514        8.1098275963
  H        13.1244564183       -0.1811043559        9.9859252814
  O         2.0107956274       27.9480212019        4.9198863916
  O         2.1742352045       17.9579516044        5.7498795349
  O         2.5023957629        9.1798327951        7.8339595005
  O         2.3944872043       -0.0352488679        8.9332366423
  H         3.0271231381       27.6960098008        3.4961240590
  H         2.9763343264       18.6972598805        5.8460504087
  H         3.1300423268        9.4111909877        7.0447706033
  H         2.7429327769        0.0218311090        9.9671672021
  O         7.2829260578        2.6268164406        3.3479093735
  O         7.3593645349       36.8131577643        5.1375498699
  O         7.3122363718       27.4906381556        6.9828166006
  O         7.4263815322       18.1627691860        8.6441792669
  O         7.3073262115       15.9844728717        4.1485051915
  O         7.3800053244        6.9003964183        5.9316806767
  O         7.2694972534       40.6630920753        7.7059614991
  O         7.3032253580       31.4406102420        9.4981812342
  O         7.2933386647       30.3565975011        2.8635364094
  O         7.3994796989       21.0883485291        4.6649375997
  O         7.3258857260       11.9280839627        6.3952920647
  O         7.3239606538        2.6094384971        8.1015356180
  O        10.8356003023       18.7708272726        3.1020861302
  O        10.8628994390        9.6908881067        4.8471097296
  O        10.7811965475        0.1992812765        6.3519787806
  O        10.7289061718       34.3376987741        8.2593779804
  O        10.8146500806        5.3287746211        2.1191477000
  O        10.7238683494       39.4406587461        3.9088152612
  O        10.8158212985       30.0856454689        5.7015878534
  O        10.7485022800       21.0126365240        7.5144429053
  O        10.7949421043       34.4669746990        3.5011072583
  O        10.8000628717       25.1291888278        5.3776046998
  O        10.7759074880       15.8257247535        7.1261700140
  O        10.7354557625        6.6890333860        8.7624090497
  O        13.2309176039       18.7881321526        3.0614895240
  O        13.2514506374        9.6922272557        4.7526492359
  O        13.2977473641        0.1985701681        6.3438233248
  O        13.3472746949       34.3377505396        8.2592354583
  O        13.2620088689        5.3293380952        2.1199929050
  O        13.3528395392       39.4407535566        3.9099057921
  O        13.2814948116       30.1243398731        5.7210901819
  O        13.3058538633       20.9625916140        7.4896550859
  O        13.2813970775       34.4663588752        3.5011889798
  O        13.2783515627       25.1562637562        5.3400690867
  O        13.3108409226       15.7871634483        7.1546048643
  O        13.3585127303        6.7004830877        8.7608595651
  O         9.9145094577        2.6280443607        3.3474898590
  O         9.8381215664       36.8133017613        5.1373183061
  O         9.9149234877       27.4911029848        7.0420966989
  O         9.7705701331       18.1537784767        8.6245905861
  O         9.8608178170       16.0140826462        4.1809551635
  O         9.8153471681        6.9224099761        5.9435192782
  O         9.9285077334       40.6578213468        7.7032421316
  O         9.8937114700       31.4413439307        9.4990637782
  O         9.9141371590       30.3675401938        2.8523019089
  O         9.8111516751       21.1179645407        4.6458489845
  O         9.8752515956       11.9505079555        6.3684471082
  O         9.8727422648        2.6019339273        8.1048414080
  O         8.5998412306        0.4650829452        3.6852199238
  O         8.5993737079       34.5520869475        5.4737683245
  O         8.5972806697       25.2551815094        7.3091527147
  O         8.5991403870       15.9751525555        9.0526223188
  O         8.5993744854        2.3699604065        5.4029510117
  O         8.5991064229       36.4097646973        7.3494713330
  O         8.5913395763       27.1849442802        9.1431982736
  O         8.6021569106       17.7287313368       10.9061639385
  P         8.5989889970        2.0797744377        3.8840413800
  P         8.5988754515       36.0764166934        5.7696232941
  P         8.6044538556       26.8184840555        7.5949974435
  P         8.5963005541       17.6256315256        9.4462161353
 Ca         8.5987481834       38.5731576293        4.1133618369
 Ca         8.5933931960       29.6869577904        5.7693033959
 Ca         8.6188733649       20.0774067702        7.6656046622
 Ca         8.5661470030       10.8990080833        9.3159073160
  O         8.5968498412       16.9587622474        2.1127252737
  O         8.6048166658        7.6895519916        3.8391817033
  O         8.5995265514       41.5596939205        5.6485526901
  O         8.5994881428       32.3549391828        7.4687435436
  O         8.6025789863       14.3488503431        2.8162037684
  O         8.6097380484        5.1772796694        4.5406900084
  O         8.5984117289       39.1091255625        6.3179946439
  O         8.5995996588       29.8771862555        8.0360202759
  P         8.5811456947       15.8716769224        3.1860377377
  P         8.5879059073        6.6560461875        4.9408095109
  P         8.5979866407       40.6247111643        6.9088244078
  P         8.5991219215       31.3427195239        8.6963998644
 Ca         8.5987113927       34.4306951767        2.8950676408
 Ca         8.6223318096       25.2916596791        4.6828672007
 Ca         8.6266682793       16.0010822496        6.3581765127
 Ca         8.5924971046        6.5383700119        8.3218597415
  O         8.6005719442       31.7920320666        4.5338578227
  O         8.5957455005       22.5573902944        6.3893309622
  O         8.5969244762       13.2308240396        8.2372633664
  O         8.5998278513        4.0255232270        9.9760777133
  O         8.5954877285       32.3927490151        2.0442108165
  O         8.5874706158       23.2219674764        3.9182494726
  O         8.5921496775       13.9215292007        5.6402981015
  O         8.6014550180        4.4860314838        7.3363345993
  P         8.6117358766       31.1894311926        2.9939776080
  P         8.6043291669       21.9982321960        4.8307832199
  P         8.6001753167       12.7258375678        6.6427251079
  P         8.5981545923        3.4454613262        8.5937160813
 Ca         8.5876191277       19.2722316378        2.9583361688
 Ca         8.5924666706        9.5445023898        4.9501593322
 Ca         8.6071186783        1.0461217387        7.1057168991
 Ca         8.5988335175       34.1728434675        8.8016514810
  O        12.0316764098       20.9744879034        2.7141065986
  O        12.0331276498       11.8802543508        4.3691320431
  O        12.0378447186        2.4403700380        6.1178302894
  O        12.0376254312       36.5099563906        7.9216097331
  O        12.0292718190       19.1889374263        0.7992178888
  O        12.0264618046       10.0882300322        2.5269609213
  O        12.0364411093        0.6110729220        4.2776741479
  O        12.0376982161       34.6355958693        6.2026037538
  P        12.0504134268       19.5142338054        2.2533396850
  P        12.0396118715       10.1943676983        3.9587076641
  P        12.0382100798        0.9656259708        5.8096756953
  P        12.0380758324       34.9161011381        7.7480164044
 Ca        12.0518296729       25.8963831324        2.4144641536
 Ca        12.0902694827       17.0253145834        3.5245380103
 Ca        12.0663257049        7.4521421787        5.6747300911
 Ca        12.0152663905       41.6722853567        7.4813823331
  O        12.0389779645        4.6017178435        4.2461598266
  O        12.0376618851       38.5777381165        6.0103636521
  O        12.0382056761       29.2637029802        7.7789555069
  O        12.0409393666       20.0352271764        9.5289792380
  O        12.0384795953        7.1034082556        3.5974566634
  O        12.0378342638       41.0315315180        5.3038620382
  O        12.0280499661       31.8112592287        7.1166720707
  O        12.0470634289       22.6436406506        8.8009682205
  P        12.0381465498        5.7437011518        2.9678230597
  P        12.0380082799       39.5767967166        4.7448165301
  P        12.0440153419       30.3696806124        6.5913042242
  P        12.0315849487       21.1044027451        8.4308711583
 Ca        12.0509648367       30.3935993784        3.3741357353
 Ca        12.0193656631       21.0011601050        4.9179916007
 Ca        12.0092451802       11.6415248635        6.7151772879
 Ca        12.0369818667        2.6548023054        8.7909359376
  O        12.0379783231       32.9833415824        1.6802218137
  O        12.0372907906       23.9842412996        3.4172313388
  O        12.0346597338       14.4422943407        5.2622736857
  O        12.0461470212        5.2459845700        7.1015287522
  O        12.0380584963       32.5627893433        4.2729660858
  O        12.0460517007       23.1397228160        5.9364082088
  O        12.0299955392       13.7781989100        7.8577048957
  O        12.0464157260        4.6177146200        9.5605981539
  P        12.0381980991       33.5684810716        3.0301820970
  P        12.0341059740       24.2850009715        4.9069690598
  P        12.0451954213       15.0212040860        6.7157484089
  P        12.0558530160        5.8484732247        8.6160330089
 Ca        12.0386094202        2.9442723510        2.8289651041
 Ca        12.0383772790       36.0699258668        4.5400801378
 Ca        12.0520798559       27.0771234895        6.2339680870
 Ca        12.0339206650       18.0274634837        8.3616667493
 Ca         6.9274804413       42.3277139731        4.3228089590
 Ca         6.8489649520       32.8299120179        5.8199240508
 Ca         6.8234491212       23.4611495511        7.4405390725
 Ca         6.9580343729       14.4897102415        9.2533811084
 Ca        10.3177713900       13.4167515764        4.1097337314
 Ca        10.2917589056        4.2375299270        5.7743715669
 Ca        10.3460411509       38.0025081250        7.4239784849
 Ca        10.2596615628       28.9758505620        9.0814999112
 Ca        13.7633030910       13.4215866562        4.1065202153
 Ca        13.7923509029        4.2463243094        5.7872312524
 Ca        13.7302855779       38.0021956308        7.4238413521
 Ca        13.8167131187       28.9793833742        9.0832486997
 Ca        10.2693749641       42.3272729531        4.3212633357
 Ca        10.3481876051       32.8335627129        5.8196927734
 Ca        10.3756969076       23.4634358793        7.4391078834
 Ca        10.2407866234       14.4855307066        9.2535556802
  O         8.2198883290       27.4367347533        3.7137183371
  O         7.7215664503       17.9140260662        5.8437900565
  O         7.6042328812        9.1599624289        8.0153187767
  O         7.8844780521        0.0658572601        8.9163074635
  H         7.4463367207       28.3869720808        3.7264190674
  H         7.6135928088       18.9917145889        5.8214168157
  H         7.1128216455        9.2594863574        7.0518417672
  H         7.5300175266        0.0477286529        9.8906234653
  O        10.7682617433       27.2123372254        3.6755247041
  O        11.3327315638       18.8371477767        6.3805320420
  O        11.7023331013        9.7256308994        8.0733702327
  O        11.3393269983        0.1024106293        8.9857411652
  H        11.0187014287       27.9578793382        4.2932993093
  H        11.0173058988       18.4380264884        5.3158433426
  H        10.7758195913        9.0400280316        8.0035802148
  H        10.9077572068       -0.1144548815       10.0388663595
  O         5.7099489586       27.8685638381        4.0539675799
  O         5.8270462568       18.8108076695        6.3525636224
  O         5.5169371575        9.6242771791        6.8668977514
  O         6.0016167255        0.1342612859        8.9623935540
  H         6.7345627956       27.4538964767        4.2167421633
  H         6.1043953892       18.3910218076        5.3786211493
  H         6.7764173640        8.7434101942        8.1512402893
  H         6.2568984344       -0.1882395489        9.9990004771
  O         8.8800960996       27.9347955094        4.9305880984
  O         8.9450152340       18.8699818195        5.6812390737
  O         9.5955884407        9.6752012781        7.8276492850
  O         9.2659914749       -0.1705436988        8.9342439798
  H         9.9265712280       27.7004806590        3.5105403936
  H         9.9497949601       18.4365075018        6.0456968264
  H         9.7072894766        9.0505329865        7.1900264841
  H         9.6345711386        0.0700724640        9.9469180551
  O         7.1699256188       21.7072225970       17.8256590388
  C         7.2825523004       22.7999399788       17.8602485136
  O         7.4316625999       24.0230229595       17.9092570142
     387
 i =       14, E =     -6918.4121858397
  O         0.4133434997        2.6175716998        3.3490898231
  O         0.4788875136       36.7890971836        5.1497315470
  O         0.4458744621       27.4896763150        7.0073952741
  O         0.5177236545       18.1754922960        8.6378427426
  O         0.4693868734       15.9828124692        4.1293135555
  O         0.5201512022        6.9143930207        5.9507640591
  O         0.3967767560       40.6521791034        7.7065979307
  O         0.4361073945       31.4421937224        9.4896780438
  O         0.4398323042       30.3567686254        2.8551999965
  O         0.4595776330       21.1537502843        4.6255615233
  O         0.4556765345       11.9407122072        6.3770046832
  O         0.4499284632        2.6139519892        8.1343745192
  O         3.9586574840       18.8088190400        3.0480661760
  O         3.9657293819        9.6944408470        4.8004697865
  O         3.9021089702        0.2082325850        6.3516981872
  O         3.8555512899       34.3343218225        8.2688082127
  O         3.9393401551        5.3249857637        2.1271674566
  O         3.8570211167       39.4300849408        3.9147760387
  O         3.9354177888       30.1005140128        5.6980686634
  O         3.8978034608       20.9633128087        7.4942137893
  O         3.9024700153       34.4675334705        3.4695695335
  O         3.9140658229       25.1153517384        5.3780308396
  O         3.8873095862       15.7591580989        7.1636405791
  O         3.8574182272        6.6795473230        8.7811569715
  O         6.3625702906       18.7925514245        3.0996270073
  O         6.4008155066        9.6913005107        4.6988932198
  O         6.4199400552        0.2073206592        6.3413562388
  O         6.4627637085       34.3343570156        8.2686582471
  O         6.3797688766        5.3258749894        2.1280395798
  O         6.4614102422       39.4301695348        3.9156844730
  O         6.4137368144       30.1538763306        5.7211848888
  O         6.4612019470       21.0394222842        7.5330892521
  O         6.4162756077       34.4671237358        3.4697100286
  O         6.4111610919       25.1452090760        5.3322373226
  O         6.4128590901       15.8107860980        7.1221092090
  O         6.4206452684        6.6835136889        8.7797673891
  O         3.0252675518        2.6184011461        3.3483231383
  O         2.9606068412       36.7892283386        5.1494883516
  O         3.0360853545       27.4919678291        7.0771098733
  O         2.9290554430       18.1851728772        8.6492509618
  O         3.0128420908       15.9600407408        4.1090966273
  O         2.9410228788        6.8816145437        5.9339086463
  O         3.0378909609       40.6506813789        7.7067583166
  O         3.0029797743       31.4424856976        9.4904173413
  O         3.0178660973       30.3701738771        2.8407854643
  O         2.9509861451       21.1099605098        4.6528060627
  O         2.9564896383       11.9229767187        6.3886877750
  O         2.9890131792        2.6150366454        8.1336891185
  O         1.7203494714        0.5012400331        3.6884790973
  O         1.7203145490       34.5745511299        5.4797393338
  O         1.7183221787       25.2794709531        7.3066296100
  O         1.7219142762       15.9838550385        9.0762675815
  O         1.7197950542        2.3883785911        5.4117439518
  O         1.7201675434       36.3857313266        7.3310637079
  O         1.7086034737       27.1827503391        9.1310981809
  O         1.7187388413       17.7404293765       10.8826987528
  P         1.7198712435        2.0604081228        3.8859759693
  P         1.7198525858       36.0654043271        5.7769102526
  P         1.7231696356       26.8173436610        7.5929495369
  P         1.7203897307       17.5847271621        9.4062291595
 Ca         1.7199596086       38.5814924682        4.1183107290
 Ca         1.7066775492       29.7020332290        5.7803940547
 Ca         1.6968453642       20.0672999205        7.6491268224
 Ca         1.8026885259       10.8176933152        9.2491972249
  O         1.7261422231       16.9175046318        2.1340136606
  O         1.7175453002        7.6466717826        3.8189680383
  O         1.7204766105       41.5614098165        5.6783123367
  O         1.7207788187       32.3437340785        7.4679577104
  O         1.7207154006       14.3519622797        2.7919772093
  O         1.7066221074        5.1791615456        4.5218614330
  O         1.7202196105       39.1209847219        6.3145922417
  O         1.7207119890       29.9006620439        8.0177166901
  P         1.7271044625       15.8977981236        3.2049080326
  P         1.7228223728        6.6562943783        4.9606716018
  P         1.7179645986       40.5912673934        6.8948507670
  P         1.7201811481       31.3393026012        8.6837013440
 Ca         1.7195989229       34.4867838087        2.8985288981
 Ca         1.7557858328       25.3289377663        4.6961079596
 Ca         1.6972906131       15.9897954170        6.3671399295
 Ca         1.7405765151        6.6895892561        8.1940365758
  O         1.7223331348       31.8091452620        4.5133439377
  O         1.7237481249       22.5495644274        6.3732765221
  O         1.7242726682       13.2016452560        8.2051279144
  O         1.7189960963        4.0267519224        9.9351994725
  O         1.7145686938       32.3748217868        2.0238547811
  O         1.7331454955       23.2169592082        3.9039192547
  O         1.7318632330       13.9059048056        5.6584431008
  O         1.7179485317        4.4901988082        7.3632256436
  P         1.7333864385       31.2029184150        3.0046486022
  P         1.7195359853       21.9846367493        4.8595339872
  P         1.7069995758       12.7352901519        6.6738824054
  P         1.7204623043        3.4860817086        8.5551892749
 Ca         1.7288506765       19.2434135588        3.0358802926
 Ca         1.7248595768        9.5863141244        5.0241044128
 Ca         1.7278240698        1.0277289273        7.0598151681
 Ca         1.7198221132       34.2269796571        8.8097885739
  O         5.1666298767       20.9760969104        2.6981365026
  O         5.1535018857       11.8507926950        4.3256533806
  O         5.1580003345        2.4361472829        6.1247219293
  O         5.1587029859       36.5095314250        7.9331403290
  O         5.1727089512       19.1822253054        0.8202786744
  O         5.1391647583       10.0837641263        2.5353555194
  O         5.1564095944        0.6254850219        4.2873760289
  O         5.1586979102       34.6148372177        6.1930059253
  P         5.1515709250       19.5129369972        2.2855288986
  P         5.1534156328       10.2461302918        4.0291364345
  P         5.1585571516        0.9757077420        5.7969738745
  P         5.1590644013       34.9310938362        7.7253960799
 Ca         5.1738488961       25.9419319139        2.4136418150
 Ca         5.1110066804       16.9625210640        3.6910278644
 Ca         5.1464062296        7.4987105649        5.7222308433
 Ca         5.1334723827       41.6439187196        7.4754736553
  O         5.1570058699        4.6448066898        4.2503888217
  O         5.1585208248       38.5802984990        5.9801371088
  O         5.1603009543       29.2873539759        7.7582419183
  O         5.1552503235       20.0734495224        9.5096263682
  O         5.1576138123        7.1095898030        3.5707859843
  O         5.1584215329       41.0291914759        5.3049918409
  O         5.1451092064       31.7968550853        7.1106606421
  O         5.1431405826       22.6299893604        8.8191073958
  P         5.1590059956        5.7172965223        2.9716603097
  P         5.1590889623       39.5714672740        4.7544964838
  P         5.1623017081       30.3676540903        6.5961701306
  P         5.1617210456       21.0839013011        8.4174528787
 Ca         5.1716747579       30.3131254918        3.3799422499
 Ca         5.1768936207       20.9561116553        4.9313106021
 Ca         5.1012419683       11.7540829630        6.6993728438
 Ca         5.1557330055        2.6042889463        8.7756568764
  O         5.1593015515       32.9881788398        1.7044389576
  O         5.1590645952       23.9817879104        3.4510901953
  O         5.1609592532       14.4841082714        5.2833691003
  O         5.1529918686        5.2376932710        7.1133656402
  O         5.1594605119       32.5426183686        4.2564805546
  O         5.1706460234       23.1014198442        5.8972235746
  O         5.1715668419       13.8091120558        7.8407363503
  O         5.1611377257        4.6383553107        9.5821663156
  P         5.1588667781       33.5608102063        3.0566438802
  P         5.1552699877       24.2905031898        4.9293052137
  P         5.1549339707       15.0196024072        6.7494921164
  P         5.1519269491        5.8318811455        8.5993981123
 Ca         5.1584827135        2.8960226228        2.8038677086
 Ca         5.1593143804       36.1219100736        4.5433815882
 Ca         5.1771664514       27.0780064334        6.1994079378
 Ca         5.1619535083       18.0079005916        8.3291243612
 Ca         0.0340766188       42.3308852923        4.3140721481
 Ca        -0.0268828552       32.8447362616        5.8255897457
 Ca        -0.0315688059       23.4557618288        7.4355884951
 Ca         0.0628308653       14.4885780706        9.2365448653
 Ca         3.4448794852       13.4516252433        4.0921200695
 Ca         3.4174066205        4.2439136654        5.7869282999
 Ca         3.4612459675       38.0181190928        7.4157588686
 Ca         3.3989852598       28.9478740383        9.1039557254
 Ca         6.8670552470       13.4429245737        4.0991777389
 Ca         6.8954747785        4.2367529387        5.7746051163
 Ca         6.8569318387       38.0184439944        7.4153929737
 Ca         6.9198160081       28.9514064868        9.1051050357
 Ca         3.4057641513       42.3309273970        4.3131555470
 Ca         3.4657722858       32.8496561306        5.8247902839
 Ca         3.4714730926       23.4620106573        7.4293151617
 Ca         3.3744983658       14.4928150207        9.2385260917
  O         1.3229390896       27.5147785433        3.6600765052
  O         1.4217797846       19.2037300624        5.6219234468
  O         0.5397658046        9.4541526815        7.9953994648
  O         0.9699840993       -0.0505655146        8.9736540963
  H         0.5318552694       28.3181620976        3.7128040110
  H         0.2812229033       18.0823350968        5.9090940627
  H         0.6666851255        9.0064892202        7.2009707207
  H         0.7344976991        0.0893291723        9.8531902375
  O         3.9078022346       27.2687221171        3.6189737016
  O         4.3400838411       17.9249305089        5.7335048130
  O         4.8238733405        9.5863268570        8.1957816597
  O         4.4331263211        0.0907428470        9.0323635264
  H         4.1508081262       27.8560124984        4.2359405971
  H         4.4890845014       18.8088263331        5.7710850251
  H         3.8580270987        8.8047438812        7.9950084304
  H         4.0835992934       -0.0730410676       10.0258013420
  O        12.6329502200       27.8923041433        4.0495846497
  O        13.1552523158       17.9947726041        5.7366714015
  O        12.3645285137        9.3838204465        6.8425901738
  O        12.9022053692        0.1034207247        9.0641606866
  H        13.5808144158       27.4007128433        4.1732663509
  H        12.7660512510       18.8004003156        5.7726913646
  H        13.4009361828        9.1201287727        8.1175710868
  H        13.0313234487       -0.1670985441        9.9266655140
  O         1.9816777395       27.9147267271        4.9037241205
  O         2.1517131963       18.0490162954        5.7315172125
  O         2.5445491234        9.1321459311        7.7738524148
  O         2.4192664479       -0.0579539733        8.9969781183
  H         2.9961324808       27.6603802796        3.5073831911
  H         2.9673546762       18.6016004363        5.8441147765
  H         3.0781694906        9.4486286001        7.0762352891
  H         2.7099945380        0.0296165411        9.9384321352
  O         7.2924744473        2.6170695118        3.3492478431
  O         7.3578522471       36.7889508291        5.1497350815
  O         7.3240728205       27.4897376924        7.0100049892
  O         7.3935034497       18.1837775425        8.6683478251
  O         7.3036116522       15.9699635652        4.1143069847
  O         7.3671353754        6.8891696944        5.9175694690
  O         7.2773740749       40.6559526847        7.7083697699
  O         7.3150143551       31.4419423832        9.4894778170
  O         7.3200778780       30.3535524829        2.8567484552
  O         7.3834880520       21.0950569865        4.6555009538
  O         7.3399475450       11.9266024799        6.3917365743
  O         7.3264629651        2.6172838059        8.1313526859
  O        10.8251543011       18.7997592083        3.0820137799
  O        10.8519207919        9.6927762757        4.8031541843
  O        10.7809367042        0.2081542228        6.3507664383
  O        10.7345629803       34.3343603314        8.2687891487
  O        10.8175013504        5.3295346541        2.1279720736
  O        10.7362210346       39.4302500556        3.9148301185
  O        10.8141834198       30.1006399572        5.6970713332
  O        10.7413983761       21.0414962881        7.5373626929
  O        10.7812088739       34.4675128614        3.4695389944
  O        10.7903043599       25.1134716005        5.3764203634
  O        10.7880068843       15.8156155662        7.1249486210
  O        10.7624420143        6.6848548419        8.7775401760
  O        13.2449215556       18.8222719943        3.0226505427
  O        13.2782958854        9.6900592063        4.6983363819
  O        13.2977957741        0.2071512930        6.3442093864
  O        13.3416820292       34.3343840995        8.2686419498
  O        13.2591954830        5.3302158482        2.1284306930
  O        13.3404690700       39.4303713050        3.9158054200
  O        13.2918581720       30.1550221043        5.7221057380
  O        13.2993254767       20.9727852727        7.5014841007
  O        13.2950620977       34.4672268277        3.4696614469
  O        13.2882435473       25.1490570493        5.3280609523
  O        13.3054669118       15.7664116745        7.1632252788
  O        13.3380131113        6.6980539991        8.7761718998
  O         9.9049641412        2.6182097466        3.3489783914
  O         9.8396596920       36.7891704780        5.1494924862
  O         9.9154215762       27.4931375693        7.0771919970
  O         9.7973018076       18.1709034008        8.6450687963
  O         9.8538892756       16.0105737622        4.1591796561
  O         9.8171585808        6.9172461290        5.9300414280
  O         9.9206002638       40.6453163251        7.7035212959
  O         9.8818720481       31.4428582225        9.4905118726
  O         9.8965514227       30.3688351540        2.8409061226
  O         9.8350267170       21.1291328746        4.6299911332
  O         9.8581131236       11.9597214442        6.3581340776
  O         9.8677801900        2.6059794470        8.1371302215
  O         8.5998821635        0.5014651170        3.6881702322
  O         8.5993783323       34.5744244080        5.4796655127
  O         8.5973196238       25.2791784928        7.3061506593
  O         8.5993873035       15.9819814776        9.0727232308
  O         8.5995417897        2.3876755632        5.4118872530
  O         8.5990687603       36.3856782495        7.3310658206
  O         8.5872231701       27.1827941398        9.1308592651
  O         8.6043228637       17.7374328744       10.8929822160
  P         8.5990286141        2.0594734216        3.8858251315
  P         8.5988007795       36.0655864936        5.7770668118
  P         8.6013421568       26.8167091681        7.5938938651
  P         8.6000137691       17.5825994045        9.4179861000
 Ca         8.5987314537       38.5815141911        4.1181250783
 Ca         8.5868833285       29.6996303808        5.7805296255
 Ca         8.6242941938       20.0669418396        7.6630371705
 Ca         8.5610716559       10.8622211153        9.2739061860
  O         8.5954541140       16.9199127355        2.1355248230
  O         8.6052647649        7.6525490910        3.8090105037
  O         8.5995946354       41.5614457514        5.6780471847
  O         8.5995133273       32.3436817728        7.4678404667
  O         8.6046932382       14.3627366986        2.7962185556
  O         8.6124048168        5.1785146124        4.5202171156
  O         8.5976724052       39.1208242043        6.3144971470
  O         8.6001037372       29.9004835501        8.0172506439
  P         8.5877865646       15.9040113296        3.2086779264
  P         8.5990188587        6.6606467895        4.9627149506
  P         8.5980379370       40.5913517895        6.8952217840
  P         8.5991224340       31.3396456159        8.6839426855
 Ca         8.5985722806       34.4880876537        2.8988620257
 Ca         8.6304019710       25.3360066146        4.6977060091
 Ca         8.6361649793       16.0041013641        6.3654058010
 Ca         8.5916375432        6.6165670916        8.3396164186
  O         8.6014784437       31.8083634626        4.5126420576
  O         8.5951781358       22.5463657864        6.3648659243
  O         8.5971142729       13.2063240187        8.2053056040
  O         8.6004688257        4.0057955035        9.9414376257
  O         8.5930344877       32.3738193159        2.0235019709
  O         8.5824568899       23.2142703040        3.9018714472
  O         8.5874409796       13.9119030237        5.6605192135
  O         8.6020475586        4.4878947018        7.3697364110
  P         8.6131525592       31.2043133988        3.0057724285
  P         8.6002892432       21.9932834719        4.8632351476
  P         8.6008542079       12.7270117767        6.6677070494
  P         8.5978084922        3.4784278394        8.5558451607
 Ca         8.5897513756       19.2526069983        3.0017115292
 Ca         8.5972230538        9.6095417468        4.9857549954
 Ca         8.6122967687        1.0240994086        7.0603401443
 Ca         8.5988404817       34.2268717835        8.8098406226
  O        12.0282962959       20.9809894887        2.6976653233
  O        12.0315834832       11.8407001747        4.3282708822
  O        12.0378032726        2.4358244770        6.1249096835
  O        12.0376594171       36.5095537518        7.9331147695
  O        12.0232515054       19.1832426660        0.8162093414
  O        12.0184690541       10.0844830736        2.5308572970
  O        12.0359786373        0.6256894114        4.2875908357
  O        12.0376165715       34.6148152441        6.1930082256
  P        12.0506426900       19.5278931946        2.2768672346
  P        12.0341329287       10.2410919252        4.0251037118
  P        12.0379330324        0.9756874419        5.7966367449
  P        12.0380674468       34.9311355292        7.7254314711
 Ca        12.0564675499       25.9417602716        2.4154579372
 Ca        12.1062089983       16.9888929381        3.5650241300
 Ca        12.0642306460        7.4855480104        5.7160718012
 Ca        12.0143804896       41.6424719567        7.4723086930
  O        12.0397890512        4.6453416860        4.2505631406
  O        12.0376920632       38.5802861583        5.9800043571
  O        12.0392267148       29.2872266680        7.7578147209
  O        12.0409187333       20.0742926681        9.5105100690
  O        12.0387085770        7.1095187214        3.5686008632
  O        12.0376945874       41.0293024944        5.3048597442
  O        12.0236556458       31.7971250852        7.1106210523
  O        12.0526172512       22.6343631080        8.8211297845
  P        12.0379526613        5.7168423854        2.9725592771
  P        12.0380445023       39.5711498679        4.7543686804
  P        12.0426390723       30.3684376827        6.5964207126
  P        12.0335701827       21.0865557341        8.4186989074
 Ca        12.0538458906       30.3156105472        3.3796329381
 Ca        12.0181558660       20.9737959023        4.9396979681
 Ca        12.0090173882       11.6461024509        6.7080633477
 Ca        12.0364178478        2.6075177353        8.7751229404
  O        12.0380704549       32.9881335623        1.7044642557
  O        12.0358184879       23.9818488567        3.4507956391
  O        12.0341844005       14.4595504333        5.3021423038
  O        12.0495571792        5.2397798127        7.1134808568
  O        12.0380561238       32.5429815726        4.2567759392
  O        12.0501602999       23.1066043021        5.9011119171
  O        12.0250302377       13.7983365833        7.8419216985
  O        12.0496969320        4.6448980636        9.5816308981
  P        12.0383147136       33.5610616485        3.0565770063
  P        12.0364065553       24.2912948572        4.9284105185
  P        12.0436689166       15.0110470190        6.7538714149
  P        12.0531053673        5.8416328303        8.5973856541
 Ca        12.0389084094        2.8977901064        2.8028448414
 Ca        12.0383956738       36.1218366382        4.5433882413
 Ca        12.0553090571       27.0790418515        6.2006934579
 Ca        12.0384927205       18.0157699101        8.3220681873
 Ca         6.9125153468       42.3309677703        4.3145977627
 Ca         6.8517953382       32.8448484611        5.8257886330
 Ca         6.8445556111       23.4536733669        7.4382122763
 Ca         6.9439249549       14.4905844636        9.2536988906
 Ca        10.3182804772       13.4077937719        4.1085430842
 Ca        10.3019163921        4.2321813956        5.7738440032
 Ca        10.3402075402       38.0185710688        7.4156270309
 Ca        10.2785142325       28.9463821735        9.1042415949
 Ca        13.7637131509       13.4140374223        4.1038743887
 Ca        13.7807955174        4.2384190568        5.7869659490
 Ca        13.7359196016       38.0182287825        7.4154307415
 Ca        13.7983036475       28.9506586345        9.1057327234
 Ca        10.2843088089       42.3305836368        4.3130710564
 Ca        10.3450446817       32.8497997641        5.8251338451
 Ca        10.3554669861       23.4557579904        7.4363857958
 Ca        10.2560529798       14.4867980019        9.2408366065
  O         8.1877172669       27.5500114862        3.6603487398
  O         7.7724200939       17.9758734982        5.8417735969
  O         7.5958262565        9.1060032004        8.0035794805
  O         7.8759892760        0.0752304254        8.9668403220
  H         7.4976175846       28.3201931208        3.6903608832
  H         7.5546194376       18.9475734942        5.8071262169
  H         7.1087910816        9.3047894526        7.0703888671
  H         7.5916921557        0.0507849076        9.8581141786
  O        10.8136170367       27.2698043729        3.6495590564
  O        11.2612006279       18.8539439341        6.3187196704
  O        11.7634217607        9.6893462828        8.1201243134
  O        11.3102806245        0.1150833961        9.0367342268
  H        11.0494766250       27.8898377454        4.2576312917
  H        11.0457963278       18.4628452563        5.3546719642
  H        10.8286215595        9.1035868621        8.0397011112
  H        10.9645162253       -0.0976575380       10.0239572033
  O         5.7127219130       27.8584947666        4.0620115512
  O         5.7949529165       18.8477738789        6.2956959063
  O         5.5074895964        9.5285033044        6.8760563363
  O         6.0277008223        0.1250346767        9.0493827272
  H         6.6784648092       27.4554922730        4.2137311354
  H         6.1046521975       18.4320481505        5.4327134578
  H         6.7748434618        8.7500157947        8.1635876178
  H         6.1659243419       -0.1721089876        9.9356109060
  O         8.8538610301       27.8997036094        4.9179162836
  O         8.9693204339       18.8838995237        5.6263357235
  O         9.5452147146        9.6400251590        7.8187281771
  O         9.2788274479       -0.2215259404        8.9995027070
  H         9.8870725497       27.6687639292        3.5238477566
  H         9.9542994571       18.4657769720        6.0957787164
  H         9.6323964557        9.0621659393        7.1773310568
  H         9.6025994211        0.0834733855        9.9139311515
  O         7.1459295938       21.6740756008       17.8258682992
  C         7.2869947148       22.8160338353       17.8626894546
  O         7.4488955881       24.0341512882       17.9065052405
